*Part, name=tess

*Node
1, 0.000000000000, 0.000000000000, 0.480836332398
2, 0.459755416589, 0.000000000000, 1.000000000000
3, 0.000000000000, 0.000000000000, 0.041458869036
4, 0.000000000000, 0.393293813046, 0.270420087688
5, 0.875164741475, 0.000000000000, 0.278445691339
6, 0.913900420561, 0.000000000000, 0.660033507666
7, 0.434151598161, 0.327663532237, 0.795784363147
8, 0.484257319426, 0.051714829787, 1.000000000000
9, 0.536170248205, 0.000000000000, 1.000000000000
10, 0.178728872392, 0.472579545895, 0.429825098041
11, 0.186998765476, 0.462472809438, 0.361331160813
12, 0.029093767212, 0.415649197792, 0.291312905140
13, 0.000000000000, 0.000000000000, 0.000000000000
14, 1.000000000000, 0.000000000000, 0.000000000000
15, 1.000000000000, 0.040784654316, 0.000000000000
16, 1.000000000000, 0.000000000000, 0.038752863502
17, 0.881546611618, 0.000000000000, 0.276318991687
18, 0.722421690362, 0.420035938944, 0.196343791871
19, 0.893965115199, 0.264594293597, 0.000000000000
20, 0.000000000000, 0.582459991209, 0.000000000000
21, 0.434001108634, 0.704989536248, 0.202228280672
22, 0.362001661576, 0.790953398456, 0.000000000000
23, 0.000000000000, 0.409696248986, 0.274168254683
24, 0.000000000000, 1.000000000000, 0.000000000000
25, 0.000000000000, 1.000000000000, 0.669057750529
26, 0.059688233947, 1.000000000000, 0.656084349367
27, 0.257144028346, 0.573870922957, 0.463532029818
28, 0.554516962647, 1.000000000000, 0.243413634122
29, 0.432807668780, 1.000000000000, 0.000000000000
30, 0.503947601476, 0.807076535216, 0.272964215305
31, 0.000000000000, 0.529822736073, 0.503955515921
32, 0.181969901270, 0.481439284558, 0.447414063030
33, 0.506581420832, 1.000000000000, 1.000000000000
34, 0.691298725730, 1.000000000000, 1.000000000000
35, 0.557938786910, 0.677531596182, 0.778820222491
36, 0.599315620615, 0.911726674895, 1.000000000000
37, 0.938983996879, 1.000000000000, 0.729681107085
38, 0.759779567980, 1.000000000000, 0.403262586233
39, 0.716230778682, 0.911385466158, 0.401010832367
40, 0.893253728733, 0.933628833647, 0.704109823681
41, 0.000000000000, 1.000000000000, 1.000000000000
42, 0.000000000000, 0.509856851268, 1.000000000000
43, 0.324207734950, 0.419599493076, 1.000000000000
44, 0.394789918890, 0.407632437561, 0.809129530152
45, 1.000000000000, 1.000000000000, 1.000000000000
46, 1.000000000000, 0.000000000000, 1.000000000000
47, 1.000000000000, 0.000000000000, 0.638115693897
48, 1.000000000000, 1.000000000000, 0.749495630742
49, 1.000000000000, 0.418074474013, 0.655499290595
50, 0.000000000000, 0.000000000000, 1.000000000000
51, 1.000000000000, 1.000000000000, 0.000000000000
52, 1.000000000000, 0.466878807137, 0.000000000000
53, 1.000000000000, 1.000000000000, 0.216854141310
54, 1.000000000000, 0.000000000000, 0.472624517697
55, 0.000000000000, 0.241382156377, 0.351694390165
56, 0.000000000000, 0.338499179967, 0.299735781300
57, 0.000000000000, 0.377572972381, 0.278830899520
58, 0.000000000000, 0.365967062164, 0.254511456593
59, 0.000000000000, 0.311313560400, 0.222694194403
60, 0.000000000000, 0.202006556872, 0.159059670022
61, 0.000000000000, 0.067335518957, 0.080659136031
62, 0.000000000000, 0.000000000000, 0.089551047324
63, 0.000000000000, 0.000000000000, 0.204774395224
64, 0.385847702320, 0.000000000000, 0.916542146934
65, 0.249935399402, 0.000000000000, 0.763067653520
66, 0.072749160153, 0.000000000000, 0.061158694078
67, 0.218247480458, 0.000000000000, 0.100558344161
68, 0.509244121070, 0.000000000000, 0.179357644329
69, 0.698106376763, 0.000000000000, 0.230499862140
70, 0.792537504609, 0.000000000000, 0.256070971046
71, 0.839753068533, 0.000000000000, 0.268856525499
72, 0.863360850494, 0.000000000000, 0.275249302726
73, 0.876040965441, 0.000000000000, 0.287077433380
74, 0.877793413372, 0.000000000000, 0.304340917462
75, 0.881298309234, 0.000000000000, 0.338867885626
76, 0.888308100959, 0.000000000000, 0.407921821955
77, 0.902327684409, 0.000000000000, 0.546029694612
78, 0.805178337347, 0.000000000000, 0.757886070089
79, 0.625839611252, 0.000000000000, 0.919295356696
80, 0.473305015395, 0.112032773724, 0.955361749393
81, 0.451400407333, 0.232668661597, 0.866085248178
82, 0.375052451945, 0.361193879447, 0.711109516566
83, 0.270346542850, 0.420599568219, 0.561091160019
84, 0.217993588303, 0.450302412605, 0.486081981746
85, 0.191817111029, 0.465153834798, 0.448577392609
86, 0.160377854843, 0.465597696176, 0.412838177227
87, 0.123675819745, 0.451633996737, 0.378864335600
88, 0.060621118056, 0.427644130774, 0.320496715293
89, 0.010290333970, 0.401200811593, 0.277809782793
90, 0.794393370462, 0.081622091258, 0.693849503724
91, 0.555379270264, 0.244866273773, 0.761481495839
92, 0.181141671843, 0.469630834475, 0.409841510288
93, 0.301871416818, 0.385274168926, 0.347495438083
94, 0.531616719503, 0.230876887901, 0.319823992623
95, 0.708931827618, 0.111714623178, 0.298467450025
96, 0.797589381675, 0.052133490816, 0.287789178726
97, 0.841918158704, 0.022342924636, 0.282450043076
98, 0.864082547218, 0.007447641545, 0.279780475251
99, 0.081728766633, 0.431257068341, 0.314652323698
100, 0.000000000000, 0.244676429241, 0.000000000000
101, 0.000000000000, 0.080143391889, 0.000000000000
102, 0.000000000000, 0.422671890024, 0.253576498501
103, 0.000000000000, 0.462178034960, 0.190882031093
104, 0.073838270153, 0.000000000000, 0.000000000000
105, 0.221514810459, 0.000000000000, 0.000000000000
106, 0.516867891070, 0.000000000000, 0.000000000000
107, 0.792943381887, 0.000000000000, 0.000000000000
108, 0.930981127296, 0.000000000000, 0.000000000000
109, 0.967130675015, 0.000000000000, 0.104674475196
110, 0.921485841203, 0.000000000000, 0.196218217325
111, 0.898663424297, 0.000000000000, 0.241990088389
112, 0.887252215844, 0.000000000000, 0.264876023921
113, 0.969834009333, 0.104456525157, 0.000000000000
114, 0.623435780679, 0.532273543715, 0.000000000000
115, 0.529695256374, 0.610445688247, 0.200275884843
116, 0.818803068972, 0.165621718080, 0.244784475782
117, 0.857408501873, 0.063716440587, 0.264187327239
118, 0.872871856630, 0.022898417342, 0.271959113561
119, 0.879065682793, 0.006548812468, 0.275072092226
120, 0.269332879862, 0.543311718375, 0.308296867433
121, 0.009637978418, 0.411668299965, 0.279847813809
122, 0.000000000000, 1.000000000000, 0.563031896065
123, 0.000000000000, 1.000000000000, 0.366032206966
124, 0.000000000000, 0.422922082867, 0.299467655496
125, 0.000000000000, 0.454487444456, 0.359848327282
126, 0.000000000000, 0.757263906080, 0.583821235280
127, 0.000000000000, 0.904580775587, 0.635551393706
128, 0.138222641007, 1.000000000000, 0.590589263789
129, 0.295291455127, 1.000000000000, 0.459599092632
130, 0.178917773242, 0.742690896003, 0.539815670497
131, 0.099431413712, 0.914230298668, 0.617328123077
132, 0.370066833552, 0.680572100708, 0.376339401592
133, 0.202464626456, 0.506638925727, 0.451808304942
134, 0.166309716506, 0.485603125858, 0.452279975430
135, 0.122508895327, 0.497249199703, 0.465889710062
136, 0.147382307009, 1.000000000000, 0.723571089105
137, 0.322770453134, 1.000000000000, 0.858544568580
138, 0.856069896372, 1.000000000000, 0.820171945528
139, 0.899507279899, 1.000000000000, 0.657774783988
140, 0.820553845938, 1.000000000000, 0.513962137795
141, 0.686227261254, 1.000000000000, 0.345983477180
142, 0.586996198670, 0.841998091682, 0.934146555915
143, 0.356825349987, 0.608223359677, 0.568016376199
144, 0.629345622270, 0.868692974462, 0.348602768299
145, 0.811599993927, 0.923368841767, 0.564302162304
146, 0.789446840573, 0.854346183303, 0.727238688656
147, 0.000000000000, 1.000000000000, 0.757671340797
148, 0.000000000000, 0.522174207487, 0.693980173154
149, 0.330005595242, 1.000000000000, 1.000000000000
150, 0.493464748819, 0.722375173377, 1.000000000000
151, 0.439751918959, 0.482013621666, 0.800776624553
152, 0.311338837474, 0.436573611736, 0.667293497837
153, 0.237413731072, 0.462211139063, 0.541648106519
154, 0.200451177871, 0.475029902726, 0.478825410860
155, 0.372136880099, 0.411473210936, 0.870388560635
156, 1.000000000000, 0.500000000000, 1.000000000000
157, 1.000000000000, 0.000000000000, 0.743531919617
158, 1.000000000000, 0.129065132032, 0.643482240631
159, 1.000000000000, 0.747088903521, 0.708643809693
160, 1.000000000000, 0.914657017315, 0.735710485270
161, 1.000000000000, 1.000000000000, 0.808200834499
162, 0.681794950067, 0.000000000000, 1.000000000000
163, 0.781314362764, 1.000000000000, 1.000000000000
164, 0.407939163969, 0.227137209139, 1.000000000000
165, 0.456311835238, 0.115949392311, 1.000000000000
166, 0.908536396195, 0.859817863547, 0.697150343003
167, 0.939055222618, 0.712420546275, 0.683252560870
168, 0.405006918035, 0.000000000000, 1.000000000000
169, 0.280978161432, 0.000000000000, 1.000000000000
170, 1.000000000000, 0.740346286812, 0.111236537348
171, 1.000000000000, 0.740346286812, 0.000000000000
172, 0.846290721544, 1.000000000000, 0.336130871130
173, 0.718904466511, 1.000000000000, 0.000000000000
174, 0.718338762150, 0.744082694986, 0.331322431043
175, 1.000000000000, 0.000000000000, 0.282428336977
176, 1.000000000000, 0.000000000000, 0.162371687385
177, 1.000000000000, 0.000000000000, 0.086588887454
178, 1.000000000000, 0.107183522713, 0.000000000000
179, 1.000000000000, 0.232052308864, 0.000000000000
180, 1.000000000000, 1.000000000000, 0.478012509572
181, 1.000000000000, 1.000000000000, 0.643998684618
182, 1.000000000000, 0.149289101187, 0.537926783616
183, 0.929020185401, 0.000000000000, 0.354994030032
184, 0.899258308127, 0.000000000000, 0.305671498587
185, 0.886779135790, 0.000000000000, 0.284990532653
186, 0.848792898712, 0.000000000000, 0.303803003749
187, 0.810766179304, 0.000000000000, 0.396157990502
188, 0.670487173470, 0.000000000000, 0.344366837433
189, 0.592333397384, 0.000000000000, 0.762137756518
190, 0.453189791515, 0.000000000000, 0.640919467956
191, 0.520657129252, 0.000000000000, 0.428068918665
192, 0.278753390909, 0.000000000000, 0.399654694179
193, 0.691611729822, 0.000000000000, 0.576045637917
194, 0.141105060635, 0.155144822951, 0.557170496731
195, 0.298819287892, 0.263871013512, 0.677094462535
196, 0.169743554918, 0.349826630132, 0.485352799584
197, 0.151431424394, 0.429649608038, 0.421968312953
198, 0.084245333435, 0.373105944488, 0.376352074659
199, 0.445157829177, 0.305490986297, 0.575216825858
200, 0.807806704720, 0.054471965433, 0.423138424059
201, 0.647686804698, 0.167962593580, 0.529731814730
202, 0.121159847721, 0.126205562163, 0.147740122184
203, 0.035769951259, 0.375396042771, 0.269686847348
204, 0.129276790997, 0.309090786062, 0.256407181122
205, 0.306685567627, 0.178800521003, 0.228597689879
206, 0.852611400996, 0.000000000000, 0.146156370895
207, 0.865094900854, 0.000000000000, 0.235631071400
208, 0.312281819773, 0.431188148871, 0.000000000000
209, 0.597111324315, 0.255379611000, 0.000000000000
210, 0.245944873681, 0.144483940143, 0.000000000000
211, 0.470987592584, 0.437988880479, 0.274447194970
212, 0.000000000000, 0.604964911282, 0.299963493459
213, 0.000000000000, 0.812878115871, 0.142087970586
214, 0.216403834390, 1.000000000000, 0.183016103483
215, 0.132477862840, 0.584734244628, 0.494443205993
216, 0.448388353420, 0.851893939083, 0.131488464273
217, 0.665782715099, 1.000000000000, 0.576564699978
218, 0.610775273689, 1.000000000000, 0.794248560159
219, 0.770537809054, 1.000000000000, 0.672544432997
220, 0.462385823891, 1.000000000000, 0.631914195486
221, 0.570663970045, 1.000000000000, 0.443456287195
222, 0.309030954130, 1.000000000000, 0.659071830606
223, 0.431200015829, 0.829476081115, 0.804126919026
224, 0.256087885441, 0.849103439148, 0.685233790969
225, 0.669871323660, 0.830115626779, 0.550416886534
226, 0.514665919596, 0.745368698800, 0.482526645085
227, 0.680177678145, 0.880933757677, 0.876729568765
228, 0.000000000000, 0.782312623404, 0.778504023823
229, 0.165002797621, 0.754928425634, 1.000000000000
230, 0.170297892248, 0.470007698645, 0.812157644647
231, 0.151040031312, 0.484833952661, 0.577003754304
232, 0.545736499963, 0.102216836327, 1.000000000000
233, 0.707945482872, 0.218499586722, 1.000000000000
234, 0.612202277456, 0.481643465611, 1.000000000000
235, 0.739656534124, 0.802249331352, 1.000000000000
236, 0.775487356129, 0.312390157078, 0.708257655000
237, 0.561505547431, 0.432492880668, 0.767723510307
238, 0.773039982702, 0.575352546179, 0.719814680966
239, 0.000000000000, 0.324527821953, 0.586256315027
240, 0.800989901993, 1.000000000000, 0.190397020624
241, 0.662177544323, 0.769722727150, 0.000000000000
242, 0.835915688040, 0.554763131682, 0.000000000000
243, 1.000000000000, 0.113910999424, 0.354165655127
244, 1.000000000000, 0.101972959332, 0.174784607336
245, 1.000000000000, 0.287515166440, 0.287916624628
246, 1.000000000000, 0.080332240871, 0.050021059715
247, 1.000000000000, 0.739322863521, 0.410547720640
248, 1.000000000000, 0.530427519585, 0.293040034642
249, 0.907344440227, 0.088725965026, 0.357882795421
250, 0.828534102786, 0.755539799133, 0.518953985614
251, 0.881393600813, 0.308282043008, 0.410914616857
252, 0.848290563122, 0.559739249393, 0.466047779475
253, 0.061254650354, 0.380218893290, 0.120123431087
254, 0.478142976761, 0.512250065804, 0.466106355190

*Element, type=C3D4
1, 203, 99, 198, 204
2, 192, 65, 190, 194
3, 199, 196, 192, 194
4, 98, 186, 74, 97
5, 195, 81, 190, 91
6, 3, 62, 66, 61
7, 197, 11, 93, 198
8, 197, 92, 93, 11
9, 192, 205, 191, 68
10, 199, 91, 190, 201
11, 192, 195, 190, 199
12, 95, 191, 188, 201
13, 186, 75, 74, 97
14, 195, 199, 82, 7
15, 55, 196, 205, 204
16, 11, 99, 204, 198
17, 192, 67, 205, 68
18, 80, 189, 91, 79
19, 195, 83, 199, 196
20, 9, 64, 80, 79
21, 194, 195, 199, 196
22, 81, 189, 91, 80
23, 196, 85, 84, 93
24, 81, 189, 80, 64
25, 98, 73, 74, 186
26, 11, 87, 99, 198
27, 55, 192, 1, 63
28, 77, 6, 90, 193
29, 188, 200, 187, 96
30, 9, 64, 2, 8
31, 189, 193, 190, 201
32, 195, 83, 82, 199
33, 197, 92, 11, 86
34, 87, 197, 11, 86
35, 89, 203, 57, 4
36, 197, 92, 10, 85
37, 192, 205, 199, 94
38, 73, 98, 5, 72
39, 91, 195, 199, 190
40, 98, 186, 71, 72
41, 70, 188, 187, 96
42, 98, 73, 186, 72
43, 55, 59, 204, 60
44, 64, 189, 80, 79
45, 202, 192, 55, 63
46, 197, 87, 11, 198
47, 59, 56, 55, 204
48, 202, 55, 60, 63
49, 203, 58, 57, 4
50, 195, 192, 194, 199
51, 61, 202, 60, 63
52, 56, 55, 204, 198
53, 92, 197, 93, 85
54, 192, 65, 194, 1
55, 195, 65, 190, 81
56, 91, 189, 190, 201
57, 78, 6, 193, 90
58, 205, 196, 93, 204
59, 203, 88, 198, 99
60, 87, 88, 99, 198
61, 191, 192, 190, 199
62, 95, 69, 188, 68
63, 81, 189, 190, 91
64, 196, 85, 93, 197
65, 64, 9, 80, 8
66, 81, 189, 64, 190
67, 65, 81, 64, 190
68, 69, 70, 96, 188
69, 67, 192, 205, 202
70, 95, 69, 96, 188
71, 12, 203, 57, 89
72, 70, 186, 71, 97
73, 192, 67, 63, 202
74, 76, 200, 75, 187
75, 186, 98, 71, 97
76, 205, 196, 199, 93
77, 195, 81, 91, 7
78, 84, 83, 196, 93
79, 195, 192, 190, 194
80, 94, 192, 191, 199
81, 189, 193, 201, 90
82, 189, 78, 90, 79
83, 204, 196, 93, 198
84, 205, 192, 191, 94
85, 65, 195, 190, 194
86, 195, 91, 199, 7
87, 203, 12, 57, 56
88, 194, 192, 1, 55
89, 91, 189, 90, 79
90, 200, 76, 77, 187
91, 189, 78, 193, 90
92, 59, 203, 56, 204
93, 200, 77, 90, 193
94, 196, 197, 93, 198
95, 193, 191, 190, 201
96, 200, 95, 188, 201
97, 11, 204, 93, 198
98, 200, 188, 193, 201
99, 94, 205, 68, 191
100, 94, 205, 199, 93
101, 59, 203, 58, 56
102, 203, 12, 88, 99
103, 205, 192, 55, 202
104, 205, 199, 196, 192
105, 12, 203, 88, 56
106, 202, 205, 204, 55
107, 191, 94, 199, 201
108, 191, 199, 190, 201
109, 95, 94, 191, 201
110, 202, 61, 66, 63
111, 200, 193, 90, 201
112, 203, 56, 57, 58
113, 61, 62, 66, 63
114, 67, 202, 66, 63
115, 203, 56, 198, 88
116, 202, 55, 204, 60
117, 91, 189, 201, 90
118, 200, 77, 193, 187
119, 200, 95, 96, 188
120, 83, 199, 196, 93
121, 56, 203, 198, 204
122, 188, 200, 193, 187
123, 196, 55, 198, 204
124, 92, 197, 10, 86
125, 188, 191, 193, 201
126, 191, 95, 68, 94
127, 191, 68, 95, 188
128, 70, 97, 187, 186
129, 70, 187, 97, 96
130, 200, 97, 187, 96
131, 192, 196, 55, 194
132, 192, 55, 196, 205
133, 75, 97, 187, 200
134, 75, 187, 97, 186
135, 205, 106, 68, 67
136, 107, 19, 209, 116
137, 108, 109, 16, 15
138, 204, 210, 208, 205
139, 18, 95, 209, 116
140, 117, 206, 70, 116
141, 206, 117, 70, 207
142, 105, 202, 66, 67
143, 93, 211, 94, 205
144, 211, 94, 209, 18
145, 104, 13, 3, 101
146, 118, 111, 112, 207
147, 4, 58, 102, 203
148, 93, 204, 208, 205
149, 110, 117, 116, 206
150, 120, 93, 204, 208
151, 253, 120, 204, 208
152, 95, 68, 209, 69
153, 107, 69, 116, 209
154, 113, 206, 116, 19
155, 72, 5, 119, 98
156, 118, 72, 119, 98
157, 205, 94, 68, 209
158, 72, 5, 112, 119
159, 253, 58, 103, 59
160, 113, 109, 116, 206
161, 107, 68, 209, 106
162, 5, 119, 17, 112
163, 11, 93, 204, 120
164, 11, 120, 204, 99
165, 253, 210, 100, 208
166, 89, 23, 121, 102
167, 93, 211, 208, 120
168, 117, 97, 70, 71
169, 210, 202, 205, 204
170, 100, 253, 20, 103
171, 117, 110, 207, 206
172, 205, 210, 208, 209
173, 114, 18, 209, 19
174, 118, 117, 111, 207
175, 89, 12, 203, 102
176, 202, 104, 66, 101
177, 253, 100, 20, 208
178, 109, 110, 116, 206
179, 69, 96, 70, 116
180, 206, 69, 70, 116
181, 66, 104, 3, 101
182, 69, 95, 116, 209
183, 205, 106, 67, 210
184, 211, 205, 208, 209
185, 211, 93, 208, 205
186, 21, 120, 208, 115
187, 19, 18, 209, 116
188, 253, 210, 208, 204
189, 253, 59, 103, 100
190, 120, 253, 204, 99
191, 12, 203, 102, 103
192, 4, 89, 102, 23
193, 210, 202, 67, 205
194, 253, 120, 20, 103
195, 205, 106, 209, 68
196, 61, 202, 101, 100
197, 113, 107, 206, 19
198, 61, 202, 66, 101
199, 253, 59, 204, 203
200, 206, 107, 116, 19
201, 114, 211, 208, 209
202, 95, 96, 69, 116
203, 96, 117, 70, 116
204, 104, 210, 101, 202
205, 117, 96, 70, 97
206, 114, 211, 115, 208
207, 210, 105, 106, 67
208, 120, 253, 99, 103
209, 202, 210, 101, 100
210, 253, 210, 202, 100
211, 253, 203, 204, 99
212, 118, 72, 71, 207
213, 210, 105, 67, 202
214, 253, 59, 60, 204
215, 207, 117, 70, 71
216, 97, 118, 98, 71
217, 118, 72, 98, 71
218, 94, 95, 209, 18
219, 253, 203, 99, 103
220, 94, 95, 68, 209
221, 110, 117, 207, 111
222, 22, 21, 208, 115
223, 22, 120, 20, 208
224, 58, 253, 203, 59
225, 21, 22, 208, 120
226, 60, 202, 61, 100
227, 253, 59, 100, 60
228, 205, 106, 210, 209
229, 14, 108, 16, 15
230, 203, 12, 99, 103
231, 211, 18, 114, 115
232, 22, 114, 115, 208
233, 206, 107, 69, 116
234, 211, 120, 115, 208
235, 61, 66, 3, 101
236, 211, 94, 205, 209
237, 211, 18, 209, 114
238, 89, 4, 102, 203
239, 107, 68, 69, 209
240, 119, 118, 112, 207
241, 109, 108, 206, 113
242, 108, 107, 206, 113
243, 72, 119, 112, 207
244, 120, 253, 20, 208
245, 253, 60, 202, 204
246, 12, 89, 121, 102
247, 108, 109, 15, 113
248, 60, 253, 202, 100
249, 72, 118, 119, 207
250, 210, 253, 202, 204
251, 58, 103, 203, 253
252, 203, 103, 58, 102
253, 104, 202, 105, 210
254, 105, 202, 104, 66
255, 117, 71, 118, 97
256, 118, 71, 117, 207
257, 215, 212, 130, 120
258, 28, 30, 214, 216
259, 213, 212, 120, 132
260, 102, 212, 124, 12
261, 130, 132, 27, 120
262, 213, 24, 214, 22
263, 27, 215, 120, 133
264, 213, 123, 214, 24
265, 121, 102, 124, 12
266, 123, 131, 126, 130
267, 212, 213, 130, 132
268, 212, 123, 130, 213
269, 213, 123, 130, 214
270, 24, 29, 214, 22
271, 125, 215, 31, 135
272, 212, 215, 87, 11
273, 215, 86, 87, 11
274, 212, 124, 88, 125
275, 30, 21, 214, 216
276, 213, 132, 120, 21
277, 30, 132, 214, 21
278, 123, 129, 128, 130
279, 215, 11, 120, 133
280, 20, 213, 120, 22
281, 30, 28, 214, 129
282, 30, 129, 214, 132
283, 20, 212, 120, 213
284, 126, 131, 122, 127
285, 131, 26, 122, 127
286, 123, 131, 122, 126
287, 123, 131, 128, 122
288, 125, 215, 87, 212
289, 212, 126, 31, 215
290, 126, 212, 130, 215
291, 102, 212, 12, 103
292, 32, 134, 133, 10
293, 131, 26, 128, 122
294, 26, 25, 122, 127
295, 212, 103, 120, 99
296, 216, 28, 29, 214
297, 215, 134, 135, 86
298, 123, 212, 130, 126
299, 20, 212, 103, 120
300, 212, 99, 88, 12
301, 11, 212, 120, 99
302, 213, 20, 24, 22
303, 215, 130, 27, 120
304, 212, 132, 130, 120
305, 29, 216, 214, 22
306, 125, 215, 212, 31
307, 102, 121, 124, 23
308, 21, 213, 214, 22
309, 103, 212, 12, 99
310, 123, 129, 130, 214
311, 124, 212, 88, 12
312, 212, 11, 87, 99
313, 215, 86, 135, 87
314, 125, 215, 135, 87
315, 132, 213, 214, 21
316, 216, 21, 214, 22
317, 215, 212, 120, 11
318, 131, 123, 128, 130
319, 213, 21, 120, 22
320, 132, 213, 130, 214
321, 129, 132, 130, 214
322, 134, 215, 10, 86
323, 134, 10, 215, 133
324, 10, 215, 92, 86
325, 10, 92, 215, 133
326, 92, 215, 11, 86
327, 92, 11, 215, 133
328, 88, 212, 87, 99
329, 88, 87, 212, 125
330, 224, 131, 136, 128
331, 146, 40, 219, 138
332, 39, 141, 221, 38
333, 40, 139, 219, 138
334, 220, 225, 218, 223
335, 221, 226, 220, 129
336, 146, 227, 138, 219
337, 132, 226, 129, 130
338, 220, 221, 217, 225
339, 39, 221, 217, 38
340, 220, 225, 217, 218
341, 224, 222, 137, 223
342, 222, 220, 137, 223
343, 226, 225, 223, 35
344, 227, 142, 223, 35
345, 130, 226, 129, 224
346, 146, 227, 219, 218
347, 225, 145, 217, 219
348, 220, 222, 224, 223
349, 226, 143, 223, 224
350, 226, 221, 144, 30
351, 132, 130, 27, 143
352, 137, 220, 218, 223
353, 226, 132, 129, 30
354, 39, 141, 144, 221
355, 220, 226, 224, 129
356, 222, 220, 224, 129
357, 227, 146, 225, 218
358, 30, 221, 28, 129
359, 33, 218, 142, 223
360, 221, 226, 129, 30
361, 221, 226, 144, 225
362, 39, 221, 144, 225
363, 39, 221, 225, 217
364, 226, 132, 143, 130
365, 227, 34, 218, 36
366, 131, 128, 26, 136
367, 33, 137, 218, 223
368, 218, 227, 142, 223
369, 222, 224, 136, 128
370, 40, 145, 219, 139
371, 224, 222, 136, 137
372, 130, 131, 224, 128
373, 33, 36, 142, 218
374, 226, 130, 143, 224
375, 221, 141, 144, 28
376, 129, 130, 224, 128
377, 143, 226, 223, 35
378, 222, 129, 224, 128
379, 227, 225, 35, 218
380, 36, 227, 142, 218
381, 145, 140, 217, 219
382, 146, 145, 225, 219
383, 145, 39, 225, 217
384, 140, 39, 217, 38
385, 140, 39, 145, 217
386, 227, 34, 138, 218
387, 30, 221, 144, 28
388, 145, 140, 219, 139
389, 221, 226, 225, 220
390, 218, 225, 35, 223
391, 227, 218, 35, 223
392, 40, 146, 219, 145
393, 220, 226, 223, 224
394, 34, 33, 218, 36
395, 227, 138, 219, 218
396, 220, 226, 225, 223
397, 40, 139, 138, 37
398, 146, 227, 225, 35
399, 225, 219, 218, 146
400, 218, 219, 225, 217
401, 26, 127, 147, 25
402, 33, 142, 36, 150
403, 151, 223, 229, 150
404, 143, 215, 231, 130
405, 229, 136, 224, 228
406, 143, 230, 224, 130
407, 230, 229, 224, 228
408, 137, 223, 149, 229
409, 143, 151, 230, 152
410, 143, 231, 153, 152
411, 27, 231, 153, 143
412, 228, 130, 126, 224
413, 130, 215, 148, 126
414, 223, 33, 149, 150
415, 143, 223, 151, 35
416, 223, 33, 150, 142
417, 215, 31, 148, 126
418, 143, 223, 224, 151
419, 136, 131, 147, 26
420, 136, 131, 228, 147
421, 143, 215, 130, 27
422, 231, 134, 215, 154
423, 42, 230, 228, 229
424, 133, 32, 154, 134
425, 223, 151, 229, 230
426, 231, 134, 135, 215
427, 33, 223, 149, 137
428, 229, 42, 41, 228
429, 149, 137, 229, 41
430, 131, 127, 126, 228
431, 230, 43, 229, 42
432, 231, 143, 230, 152
433, 44, 151, 230, 155
434, 151, 43, 230, 155
435, 215, 133, 27, 154
436, 230, 130, 148, 228
437, 134, 215, 154, 133
438, 131, 228, 126, 224
439, 151, 223, 150, 35
440, 143, 231, 230, 130
441, 151, 223, 224, 230
442, 231, 215, 148, 130
443, 215, 231, 148, 31
444, 131, 127, 228, 147
445, 151, 43, 229, 230
446, 215, 231, 31, 135
447, 43, 151, 229, 150
448, 136, 41, 147, 228
449, 27, 231, 143, 215
450, 27, 231, 215, 154
451, 130, 131, 126, 224
452, 230, 231, 148, 130
453, 137, 229, 136, 224
454, 223, 142, 150, 35
455, 41, 229, 228, 136
456, 223, 150, 149, 229
457, 131, 127, 147, 26
458, 229, 137, 136, 41
459, 230, 42, 228, 148
460, 136, 131, 224, 228
461, 137, 223, 229, 224
462, 223, 230, 229, 224
463, 27, 231, 154, 153
464, 151, 44, 230, 152
465, 143, 151, 224, 230
466, 130, 230, 224, 228
467, 130, 148, 228, 126
468, 234, 238, 156, 236
469, 164, 80, 81, 232
470, 80, 91, 81, 232
471, 237, 234, 155, 7
472, 44, 237, 155, 7
473, 227, 238, 235, 35
474, 159, 167, 156, 235
475, 227, 235, 138, 163
476, 90, 46, 236, 233
477, 142, 227, 235, 35
478, 151, 237, 234, 155
479, 146, 167, 235, 238
480, 227, 146, 235, 238
481, 238, 167, 156, 49
482, 142, 235, 36, 150
483, 227, 142, 235, 36
484, 90, 79, 233, 91
485, 79, 80, 9, 232
486, 90, 46, 78, 157
487, 46, 90, 78, 233
488, 90, 78, 6, 157
489, 46, 158, 157, 236
490, 80, 8, 9, 232
491, 90, 46, 157, 236
492, 37, 40, 160, 138
493, 164, 234, 155, 43
494, 227, 146, 238, 35
495, 151, 44, 237, 155
496, 166, 235, 160, 138
497, 235, 45, 138, 163
498, 146, 227, 235, 138
499, 45, 159, 235, 160
500, 238, 49, 156, 236
501, 235, 45, 160, 138
502, 234, 237, 238, 236
503, 234, 151, 150, 35
504, 164, 232, 81, 233
505, 35, 234, 235, 150
506, 234, 237, 91, 81
507, 161, 37, 160, 138
508, 79, 162, 233, 232
509, 158, 90, 157, 236
510, 91, 79, 232, 80
511, 91, 237, 233, 236
512, 158, 49, 236, 156
513, 237, 234, 238, 35
514, 237, 234, 233, 236
515, 234, 237, 233, 91
516, 79, 162, 78, 233
517, 142, 35, 235, 150
518, 234, 151, 43, 150
519, 156, 158, 46, 236
520, 235, 159, 166, 160
521, 237, 151, 234, 35
522, 151, 234, 43, 155
523, 158, 90, 6, 157
524, 91, 234, 81, 233
525, 159, 45, 235, 156
526, 234, 164, 81, 233
527, 90, 79, 78, 233
528, 164, 165, 80, 232
529, 167, 238, 156, 235
530, 90, 91, 233, 236
531, 237, 234, 7, 81
532, 40, 146, 166, 138
533, 45, 161, 160, 138
534, 146, 235, 166, 138
535, 40, 166, 160, 138
536, 156, 234, 236, 233
537, 232, 91, 81, 233
538, 234, 238, 235, 156
539, 37, 161, 160, 48
540, 34, 227, 138, 163
541, 227, 34, 235, 163
542, 7, 234, 155, 81
543, 162, 46, 78, 233
544, 156, 46, 233, 236
545, 237, 7, 91, 81
546, 80, 165, 8, 232
547, 167, 159, 156, 49
548, 91, 79, 233, 232
549, 34, 227, 235, 36
550, 234, 164, 155, 81
551, 47, 158, 6, 157
552, 162, 79, 9, 232
553, 238, 234, 235, 35
554, 166, 167, 235, 146
555, 166, 235, 167, 159
556, 164, 195, 155, 81
557, 153, 84, 231, 154
558, 8, 64, 168, 80
559, 195, 83, 231, 152
560, 198, 239, 31, 125
561, 50, 195, 65, 239
562, 2, 64, 168, 8
563, 135, 198, 196, 239
564, 135, 198, 31, 125
565, 55, 239, 194, 196
566, 86, 135, 197, 134
567, 1, 239, 65, 194
568, 195, 164, 155, 230
569, 230, 44, 82, 152
570, 50, 195, 239, 230
571, 12, 56, 124, 57
572, 195, 230, 82, 152
573, 89, 12, 121, 124
574, 83, 195, 82, 152
575, 32, 154, 134, 85
576, 135, 198, 125, 87
577, 12, 89, 57, 124
578, 239, 148, 42, 230
579, 125, 198, 124, 88
580, 84, 83, 231, 196
581, 239, 195, 196, 231
582, 135, 239, 196, 231
583, 230, 195, 231, 152
584, 56, 239, 55, 198
585, 239, 148, 231, 31
586, 23, 89, 121, 124
587, 56, 239, 198, 125
588, 125, 198, 88, 87
589, 148, 239, 231, 230
590, 134, 32, 85, 10
591, 196, 85, 154, 84
592, 153, 83, 152, 231
593, 195, 83, 196, 231
594, 239, 195, 231, 230
595, 195, 239, 194, 65
596, 7, 195, 81, 155
597, 198, 135, 31, 239
598, 85, 134, 10, 197
599, 239, 195, 194, 196
600, 198, 135, 197, 87
601, 84, 231, 83, 153
602, 134, 86, 10, 197
603, 230, 239, 50, 42
604, 198, 125, 124, 56
605, 198, 56, 124, 88
606, 198, 55, 196, 239
607, 23, 89, 57, 4
608, 164, 43, 155, 230
609, 81, 169, 164, 195
610, 81, 169, 195, 65
611, 56, 12, 124, 88
612, 50, 164, 230, 43
613, 89, 23, 57, 124
614, 230, 43, 42, 50
615, 81, 169, 65, 64
616, 55, 239, 1, 194
617, 50, 195, 169, 65
618, 84, 196, 231, 154
619, 1, 65, 239, 50
620, 198, 135, 196, 197
621, 165, 8, 168, 80
622, 135, 86, 197, 87
623, 135, 239, 231, 31
624, 230, 44, 195, 82
625, 230, 195, 44, 155
626, 7, 195, 44, 82
627, 7, 44, 195, 155
628, 164, 169, 80, 165
629, 168, 169, 80, 64
630, 168, 80, 169, 165
631, 85, 196, 134, 197
632, 85, 134, 196, 154
633, 231, 196, 134, 154
634, 169, 81, 80, 64
635, 169, 80, 81, 164
636, 50, 164, 195, 230
637, 50, 195, 164, 169
638, 135, 196, 134, 231
639, 135, 134, 196, 197
640, 170, 242, 171, 52
641, 173, 29, 241, 216
642, 174, 53, 240, 172
643, 240, 39, 144, 174
644, 39, 240, 141, 172
645, 216, 29, 241, 22
646, 241, 144, 30, 174
647, 115, 114, 22, 241
648, 115, 242, 174, 18
649, 242, 19, 18, 114
650, 115, 241, 30, 174
651, 170, 173, 241, 240
652, 29, 173, 28, 216
653, 216, 28, 30, 241
654, 173, 240, 28, 241
655, 242, 115, 174, 241
656, 52, 242, 19, 18
657, 21, 115, 22, 241
658, 170, 242, 174, 241
659, 170, 173, 171, 241
660, 242, 170, 18, 52
661, 39, 240, 172, 174
662, 28, 240, 144, 241
663, 170, 242, 241, 171
664, 216, 21, 22, 241
665, 170, 242, 18, 174
666, 38, 39, 141, 172
667, 39, 240, 144, 141
668, 242, 115, 241, 114
669, 174, 53, 170, 240
670, 240, 28, 144, 141
671, 53, 240, 51, 170
672, 240, 170, 174, 241
673, 170, 173, 240, 51
674, 216, 173, 28, 241
675, 170, 173, 51, 171
676, 115, 242, 18, 114
677, 28, 144, 30, 241
678, 144, 240, 174, 241
679, 21, 241, 30, 115
680, 30, 241, 21, 216
681, 251, 49, 245, 248
682, 248, 49, 247, 252
683, 175, 185, 118, 112
684, 248, 170, 174, 247
685, 170, 248, 18, 52
686, 139, 181, 37, 40
687, 159, 166, 247, 167
688, 182, 54, 249, 243
689, 160, 181, 166, 40
690, 112, 185, 118, 119
691, 159, 181, 180, 166
692, 19, 245, 179, 52
693, 39, 172, 250, 247
694, 172, 180, 250, 247
695, 166, 250, 247, 167
696, 175, 117, 111, 118
697, 245, 19, 18, 52
698, 39, 172, 145, 250
699, 245, 251, 18, 116
700, 166, 145, 180, 250
701, 39, 140, 145, 172
702, 166, 180, 247, 250
703, 172, 53, 180, 247
704, 166, 159, 247, 180
705, 252, 248, 174, 247
706, 249, 175, 54, 183
707, 250, 252, 174, 247
708, 175, 110, 111, 244
709, 140, 39, 38, 172
710, 49, 251, 245, 182
711, 176, 109, 244, 177
712, 110, 117, 244, 116
713, 117, 175, 111, 244
714, 244, 249, 243, 116
715, 117, 175, 249, 118
716, 185, 112, 17, 119
717, 250, 252, 247, 167
718, 252, 49, 247, 167
719, 244, 249, 175, 243
720, 248, 251, 18, 245
721, 109, 16, 246, 177
722, 244, 249, 116, 117
723, 175, 176, 110, 244
724, 251, 245, 249, 116
725, 110, 117, 111, 244
726, 251, 245, 182, 243
727, 252, 248, 18, 174
728, 109, 246, 244, 177
729, 39, 250, 174, 247
730, 251, 49, 248, 252
731, 49, 159, 247, 167
732, 245, 243, 116, 244
733, 112, 175, 111, 118
734, 175, 185, 184, 118
735, 19, 245, 116, 244
736, 109, 246, 116, 244
737, 246, 109, 116, 113
738, 248, 170, 18, 174
739, 181, 160, 48, 37
740, 248, 245, 18, 52
741, 172, 39, 174, 247
742, 249, 175, 184, 118
743, 145, 172, 180, 250
744, 109, 16, 15, 246
745, 245, 249, 116, 243
746, 19, 245, 18, 116
747, 110, 109, 116, 244
748, 139, 140, 180, 145
749, 140, 172, 180, 145
750, 246, 178, 15, 113
751, 109, 246, 15, 113
752, 166, 181, 180, 145
753, 251, 182, 249, 243
754, 176, 109, 110, 244
755, 178, 179, 113, 246
756, 53, 174, 247, 172
757, 245, 251, 249, 243
758, 175, 249, 184, 183
759, 181, 160, 37, 40
760, 251, 248, 18, 252
761, 53, 174, 170, 247
762, 159, 181, 166, 160
763, 181, 139, 180, 145
764, 249, 54, 175, 243
765, 245, 19, 179, 244
766, 244, 249, 117, 175
767, 40, 181, 145, 139
768, 40, 145, 181, 166
769, 246, 116, 19, 113
770, 19, 116, 246, 244
771, 19, 179, 246, 113
772, 246, 179, 19, 244
773, 252, 236, 201, 251
774, 249, 77, 200, 76
775, 6, 77, 158, 47
776, 249, 77, 76, 54
777, 185, 73, 119, 17
778, 119, 73, 98, 5
779, 201, 94, 251, 95
780, 94, 18, 251, 95
781, 85, 84, 93, 133
782, 77, 182, 158, 47
783, 200, 201, 251, 95
784, 94, 18, 211, 254
785, 116, 200, 251, 95
786, 201, 252, 251, 254
787, 252, 18, 251, 254
788, 249, 77, 54, 182
789, 236, 201, 199, 254
790, 236, 252, 238, 49
791, 146, 35, 225, 238
792, 84, 153, 27, 154
793, 77, 54, 182, 47
794, 30, 115, 132, 21
795, 132, 143, 27, 254
796, 82, 44, 7, 237
797, 84, 254, 83, 93
798, 132, 115, 226, 254
799, 249, 200, 182, 251
800, 146, 225, 250, 238
801, 182, 77, 158, 90
802, 252, 250, 238, 167
803, 236, 182, 49, 158
804, 236, 182, 201, 251
805, 143, 254, 152, 83
806, 174, 115, 226, 30
807, 82, 44, 151, 152
808, 182, 236, 201, 90
809, 174, 225, 226, 250
810, 252, 174, 226, 250
811, 35, 143, 226, 254
812, 184, 249, 74, 75
813, 73, 118, 119, 98
814, 27, 254, 93, 120
815, 39, 225, 250, 145
816, 91, 236, 90, 201
817, 199, 254, 211, 93
818, 225, 174, 39, 250
819, 249, 184, 183, 75
820, 94, 201, 251, 254
821, 18, 94, 251, 254
822, 166, 146, 145, 250
823, 166, 146, 250, 167
824, 200, 182, 201, 90
825, 252, 167, 238, 49
826, 91, 236, 201, 199
827, 96, 249, 97, 117
828, 254, 132, 211, 120
829, 132, 115, 211, 120
830, 73, 118, 98, 74
831, 249, 75, 183, 76
832, 54, 249, 183, 76
833, 82, 237, 199, 254
834, 225, 35, 226, 238
835, 151, 237, 152, 254
836, 18, 174, 254, 252
837, 77, 6, 158, 90
838, 96, 249, 117, 116
839, 200, 77, 182, 90
840, 84, 133, 27, 93
841, 249, 184, 74, 118
842, 30, 174, 144, 226
843, 44, 82, 151, 237
844, 174, 225, 144, 226
845, 182, 200, 201, 251
846, 249, 96, 200, 116
847, 83, 254, 199, 93
848, 84, 154, 27, 133
849, 201, 94, 199, 254
850, 236, 252, 201, 254
851, 143, 153, 83, 152
852, 185, 118, 119, 73
853, 237, 236, 199, 254
854, 146, 225, 145, 250
855, 96, 200, 116, 95
856, 237, 91, 7, 199
857, 94, 199, 211, 93
858, 132, 254, 27, 120
859, 143, 151, 152, 254
860, 30, 115, 226, 132
861, 118, 184, 74, 185
862, 97, 200, 75, 249
863, 118, 97, 98, 74
864, 249, 77, 182, 200
865, 118, 185, 74, 73
866, 249, 200, 75, 76
867, 18, 116, 251, 95
868, 85, 10, 32, 133
869, 92, 11, 133, 93
870, 18, 115, 211, 254
871, 84, 85, 154, 133
872, 85, 92, 133, 93
873, 27, 133, 120, 93
874, 93, 254, 211, 120
875, 250, 146, 238, 167
876, 200, 249, 116, 251
877, 174, 225, 39, 144
878, 115, 174, 226, 254
879, 182, 236, 49, 251
880, 82, 237, 7, 199
881, 75, 249, 74, 97
882, 174, 252, 226, 254
883, 236, 91, 237, 199
884, 236, 252, 49, 251
885, 115, 174, 254, 18
886, 182, 236, 90, 158
887, 133, 11, 120, 93
888, 82, 237, 152, 151
889, 237, 82, 152, 254
890, 237, 35, 238, 254
891, 146, 166, 145, 40
892, 115, 132, 211, 254
893, 94, 254, 211, 199
894, 236, 237, 238, 254
895, 252, 236, 238, 254
896, 10, 85, 92, 133
897, 97, 200, 249, 96
898, 154, 85, 32, 133
899, 115, 132, 21, 120
900, 254, 252, 226, 238
901, 254, 84, 27, 93
902, 35, 254, 226, 238
903, 132, 143, 254, 226
904, 73, 119, 17, 5
905, 250, 226, 238, 225
906, 250, 238, 226, 252
907, 118, 249, 97, 74
908, 118, 97, 249, 117
909, 84, 153, 254, 27
910, 84, 254, 153, 83
911, 143, 254, 153, 27
912, 143, 153, 254, 83
913, 254, 151, 35, 143
914, 254, 35, 151, 237
915, 83, 82, 254, 152
916, 83, 254, 82, 199

*Elset, elset=poly1
1, 2, 3, 4, 5, 6, 7, 8, 9, 10, 11, 12, 13, 14, 15, 16,
17, 18, 19, 20, 21, 22, 23, 24, 25, 26, 27, 28, 29, 30, 31, 32,
33, 34, 35, 36, 37, 38, 39, 40, 41, 42, 43, 44, 45, 46, 47, 48,
49, 50, 51, 52, 53, 54, 55, 56, 57, 58, 59, 60, 61, 62, 63, 64,
65, 66, 67, 68, 69, 70, 71, 72, 73, 74, 75, 76, 77, 78, 79, 80,
81, 82, 83, 84, 85, 86, 87, 88, 89, 90, 91, 92, 93, 94, 95, 96,
97, 98, 99, 100, 101, 102, 103, 104, 105, 106, 107, 108, 109, 110, 111,
112, 113, 114, 115, 116, 117, 118, 119, 120, 121, 122, 123, 124, 125,
126, 127, 128, 129, 130, 131, 132, 133, 134

*Elset, elset=poly2
135, 136, 137, 138, 139, 140, 141, 142, 143, 144, 145, 146, 147, 148,
149, 150, 151, 152, 153, 154, 155, 156, 157, 158, 159, 160, 161, 162,
163, 164, 165, 166, 167, 168, 169, 170, 171, 172, 173, 174, 175, 176,
177, 178, 179, 180, 181, 182, 183, 184, 185, 186, 187, 188, 189, 190,
191, 192, 193, 194, 195, 196, 197, 198, 199, 200, 201, 202, 203, 204,
205, 206, 207, 208, 209, 210, 211, 212, 213, 214, 215, 216, 217, 218,
219, 220, 221, 222, 223, 224, 225, 226, 227, 228, 229, 230, 231, 232,
233, 234, 235, 236, 237, 238, 239, 240, 241, 242, 243, 244, 245, 246,
247, 248, 249, 250, 251, 252, 253, 254, 255, 256

*Elset, elset=poly3
257, 258, 259, 260, 261, 262, 263, 264, 265, 266, 267, 268, 269, 270,
271, 272, 273, 274, 275, 276, 277, 278, 279, 280, 281, 282, 283, 284,
285, 286, 287, 288, 289, 290, 291, 292, 293, 294, 295, 296, 297, 298,
299, 300, 301, 302, 303, 304, 305, 306, 307, 308, 309, 310, 311, 312,
313, 314, 315, 316, 317, 318, 319, 320, 321, 322, 323, 324, 325, 326,
327, 328, 329

*Elset, elset=poly4
330, 331, 332, 333, 334, 335, 336, 337, 338, 339, 340, 341, 342, 343,
344, 345, 346, 347, 348, 349, 350, 351, 352, 353, 354, 355, 356, 357,
358, 359, 360, 361, 362, 363, 364, 365, 366, 367, 368, 369, 370, 371,
372, 373, 374, 375, 376, 377, 378, 379, 380, 381, 382, 383, 384, 385,
386, 387, 388, 389, 390, 391, 392, 393, 394, 395, 396, 397, 398, 399,
400

*Elset, elset=poly5
401, 402, 403, 404, 405, 406, 407, 408, 409, 410, 411, 412, 413, 414,
415, 416, 417, 418, 419, 420, 421, 422, 423, 424, 425, 426, 427, 428,
429, 430, 431, 432, 433, 434, 435, 436, 437, 438, 439, 440, 441, 442,
443, 444, 445, 446, 447, 448, 449, 450, 451, 452, 453, 454, 455, 456,
457, 458, 459, 460, 461, 462, 463, 464, 465, 466, 467

*Elset, elset=poly6
468, 469, 470, 471, 472, 473, 474, 475, 476, 477, 478, 479, 480, 481,
482, 483, 484, 485, 486, 487, 488, 489, 490, 491, 492, 493, 494, 495,
496, 497, 498, 499, 500, 501, 502, 503, 504, 505, 506, 507, 508, 509,
510, 511, 512, 513, 514, 515, 516, 517, 518, 519, 520, 521, 522, 523,
524, 525, 526, 527, 528, 529, 530, 531, 532, 533, 534, 535, 536, 537,
538, 539, 540, 541, 542, 543, 544, 545, 546, 547, 548, 549, 550, 551,
552, 553, 554, 555

*Elset, elset=poly7
556, 557, 558, 559, 560, 561, 562, 563, 564, 565, 566, 567, 568, 569,
570, 571, 572, 573, 574, 575, 576, 577, 578, 579, 580, 581, 582, 583,
584, 585, 586, 587, 588, 589, 590, 591, 592, 593, 594, 595, 596, 597,
598, 599, 600, 601, 602, 603, 604, 605, 606, 607, 608, 609, 610, 611,
612, 613, 614, 615, 616, 617, 618, 619, 620, 621, 622, 623, 624, 625,
626, 627, 628, 629, 630, 631, 632, 633, 634, 635, 636, 637, 638, 639

*Elset, elset=poly8
640, 641, 642, 643, 644, 645, 646, 647, 648, 649, 650, 651, 652, 653,
654, 655, 656, 657, 658, 659, 660, 661, 662, 663, 664, 665, 666, 667,
668, 669, 670, 671, 672, 673, 674, 675, 676, 677, 678, 679, 680

*Elset, elset=poly9
681, 682, 683, 684, 685, 686, 687, 688, 689, 690, 691, 692, 693, 694,
695, 696, 697, 698, 699, 700, 701, 702, 703, 704, 705, 706, 707, 708,
709, 710, 711, 712, 713, 714, 715, 716, 717, 718, 719, 720, 721, 722,
723, 724, 725, 726, 727, 728, 729, 730, 731, 732, 733, 734, 735, 736,
737, 738, 739, 740, 741, 742, 743, 744, 745, 746, 747, 748, 749, 750,
751, 752, 753, 754, 755, 756, 757, 758, 759, 760, 761, 762, 763, 764,
765, 766, 767, 768, 769, 770, 771, 772

*Elset, elset=poly10
773, 774, 775, 776, 777, 778, 779, 780, 781, 782, 783, 784, 785, 786,
787, 788, 789, 790, 791, 792, 793, 794, 795, 796, 797, 798, 799, 800,
801, 802, 803, 804, 805, 806, 807, 808, 809, 810, 811, 812, 813, 814,
815, 816, 817, 818, 819, 820, 821, 822, 823, 824, 825, 826, 827, 828,
829, 830, 831, 832, 833, 834, 835, 836, 837, 838, 839, 840, 841, 842,
843, 844, 845, 846, 847, 848, 849, 850, 851, 852, 853, 854, 855, 856,
857, 858, 859, 860, 861, 862, 863, 864, 865, 866, 867, 868, 869, 870,
871, 872, 873, 874, 875, 876, 877, 878, 879, 880, 881, 882, 883, 884,
885, 886, 887, 888, 889, 890, 891, 892, 893, 894, 895, 896, 897, 898,
899, 900, 901, 902, 903, 904, 905, 906, 907, 908, 909, 910, 911, 912,
913, 914, 915, 916

*Nset, nset=x0
1, 3, 4, 13, 20, 23, 24, 25, 31, 41, 42, 50, 55, 56, 57, 58,
59, 60, 61, 62, 63, 100, 101, 102, 103, 122, 123, 124, 125, 126, 127,
147, 148, 212, 213, 228, 239

*Nset, nset=x1
14, 15, 16, 45, 46, 47, 48, 49, 51, 52, 53, 54, 156, 157, 158, 159,
160, 161, 170, 171, 175, 176, 177, 178, 179, 180, 181, 182, 243, 244,
245, 246, 247, 248

*Nset, nset=y0
1, 2, 3, 5, 6, 9, 13, 14, 16, 17, 46, 47, 50, 54, 62, 63,
64, 65, 66, 67, 68, 69, 70, 71, 72, 73, 74, 75, 76, 77, 78, 79,
104, 105, 106, 107, 108, 109, 110, 111, 112, 157, 162, 168, 169, 175,
176, 177, 183, 184, 185, 186, 187, 188, 189, 190, 191, 192, 193, 206,
207

*Nset, nset=y1
24, 25, 26, 28, 29, 33, 34, 37, 38, 41, 45, 48, 51, 53, 122, 123,
128, 129, 136, 137, 138, 139, 140, 141, 147, 149, 161, 163, 172, 173,
180, 181, 214, 217, 218, 219, 220, 221, 222, 240

*Nset, nset=z0
13, 14, 15, 19, 20, 22, 24, 29, 51, 52, 100, 101, 104, 105, 106, 107,
108, 113, 114, 171, 173, 178, 179, 208, 209, 210, 241, 242

*Nset, nset=z1
2, 8, 9, 33, 34, 36, 41, 42, 43, 45, 46, 50, 149, 150, 156, 162,
163, 164, 165, 168, 169, 229, 232, 233, 234, 235

*Nset, nset=x0y1
24, 25, 41, 122, 123, 147

*Nset, nset=x0z1
41, 42, 50

*Nset, nset=x0y0
1, 3, 13, 50, 62, 63

*Nset, nset=x0z0
13, 20, 24, 100, 101

*Nset, nset=x1y0
14, 16, 46, 47, 54, 157, 175, 176, 177

*Nset, nset=x1z1
45, 46, 156

*Nset, nset=x1y1
45, 48, 51, 53, 161, 180, 181

*Nset, nset=x1z0
14, 15, 51, 52, 171, 178, 179

*Nset, nset=y0z1
2, 9, 46, 50, 162, 168, 169

*Nset, nset=y0z0
13, 14, 104, 105, 106, 107, 108

*Nset, nset=y1z0
24, 29, 51, 173

*Nset, nset=y1z1
33, 34, 41, 45, 149, 163

*Nset, nset=x0y0z0
13

*Nset, nset=x1y0z0
14

*Nset, nset=x1y1z0
51

*Nset, nset=x0y1z0
24

*Nset, nset=x0y0z1
50

*Nset, nset=x0y1z1
41

*Nset, nset=x1y1z1
45

*Nset, nset=x1y0z1
46

*Elset, elset=elt27-S4, internal, instance=tess
27,
*Elset, elset=elt47-S1, internal, instance=tess
47,
*Elset, elset=elt43-S2, internal, instance=tess
43,
*Elset, elset=elt49-S3, internal, instance=tess
49,
*Elset, elset=elt101-S4, internal, instance=tess
101,
*Elset, elset=elt112-S3, internal, instance=tess
112,
*Elset, elset=elt48-S3, internal, instance=tess
48,
*Elset, elset=elt6-S2, internal, instance=tess
6,
*Elset, elset=elt51-S4, internal, instance=tess
51,
*Elset, elset=elt113-S2, internal, instance=tess
113,
*Elset, elset=elt170-S4, internal, instance=tess
170,
*Elset, elset=elt196-S4, internal, instance=tess
196,
*Elset, elset=elt145-S3, internal, instance=tess
145,
*Elset, elset=elt226-S4, internal, instance=tess
226,
*Elset, elset=elt235-S4, internal, instance=tess
235,
*Elset, elset=elt227-S3, internal, instance=tess
227,
*Elset, elset=elt189-S3, internal, instance=tess
189,
*Elset, elset=elt252-S3, internal, instance=tess
252,
*Elset, elset=elt159-S3, internal, instance=tess
159,
*Elset, elset=elt192-S4, internal, instance=tess
192,
*Elset, elset=elt147-S1, internal, instance=tess
147,
*Elset, elset=elt294-S3, internal, instance=tess
294,
*Elset, elset=elt286-S4, internal, instance=tess
286,
*Elset, elset=elt274-S2, internal, instance=tess
274,
*Elset, elset=elt260-S1, internal, instance=tess
260,
*Elset, elset=elt289-S1, internal, instance=tess
289,
*Elset, elset=elt291-S2, internal, instance=tess
291,
*Elset, elset=elt307-S4, internal, instance=tess
307,
*Elset, elset=elt284-S4, internal, instance=tess
284,
*Elset, elset=elt306-S4, internal, instance=tess
306,
*Elset, elset=elt298-S2, internal, instance=tess
298,
*Elset, elset=elt302-S1, internal, instance=tess
302,
*Elset, elset=elt268-S2, internal, instance=tess
268,
*Elset, elset=elt299-S1, internal, instance=tess
299,
*Elset, elset=elt264-S2, internal, instance=tess
264,
*Elset, elset=elt283-S2, internal, instance=tess
283,
*Elset, elset=elt467-S3, internal, instance=tess
467,
*Elset, elset=elt401-S3, internal, instance=tess
401,
*Elset, elset=elt459-S3, internal, instance=tess
459,
*Elset, elset=elt444-S3, internal, instance=tess
444,
*Elset, elset=elt417-S3, internal, instance=tess
417,
*Elset, elset=elt428-S3, internal, instance=tess
428,
*Elset, elset=elt430-S3, internal, instance=tess
430,
*Elset, elset=elt448-S3, internal, instance=tess
448,
*Elset, elset=elt584-S1, internal, instance=tess
584,
*Elset, elset=elt604-S3, internal, instance=tess
604,
*Elset, elset=elt587-S2, internal, instance=tess
587,
*Elset, elset=elt560-S3, internal, instance=tess
560,
*Elset, elset=elt585-S2, internal, instance=tess
585,
*Elset, elset=elt616-S1, internal, instance=tess
616,
*Elset, elset=elt613-S3, internal, instance=tess
613,
*Elset, elset=elt619-S4, internal, instance=tess
619,
*Elset, elset=elt571-S3, internal, instance=tess
571,
*Elset, elset=elt607-S4, internal, instance=tess
607,
*Elset, elset=elt578-S1, internal, instance=tess
578,
*Elset, elset=elt603-S3, internal, instance=tess
603,
*Surface, type=ELEMENT, name=x0
elt27-S4, S4
elt47-S1, S1
elt43-S2, S2
elt49-S3, S3
elt101-S4, S4
elt112-S3, S3
elt48-S3, S3
elt6-S2, S2
elt51-S4, S4
elt113-S2, S2
elt170-S4, S4
elt196-S4, S4
elt145-S3, S3
elt226-S4, S4
elt235-S4, S4
elt227-S3, S3
elt189-S3, S3
elt252-S3, S3
elt159-S3, S3
elt192-S4, S4
elt147-S1, S1
elt294-S3, S3
elt286-S4, S4
elt274-S2, S2
elt260-S1, S1
elt289-S1, S1
elt291-S2, S2
elt307-S4, S4
elt284-S4, S4
elt306-S4, S4
elt298-S2, S2
elt302-S1, S1
elt268-S2, S2
elt299-S1, S1
elt264-S2, S2
elt283-S2, S2
elt467-S3, S3
elt401-S3, S3
elt459-S3, S3
elt444-S3, S3
elt417-S3, S3
elt428-S3, S3
elt430-S3, S3
elt448-S3, S3
elt584-S1, S1
elt604-S3, S3
elt587-S2, S2
elt560-S3, S3
elt585-S2, S2
elt616-S1, S1
elt613-S3, S3
elt619-S4, S4
elt571-S3, S3
elt607-S4, S4
elt578-S1, S1
elt603-S3, S3
*Elset, elset=elt229-S4, internal, instance=tess
229,
*Elset, elset=elt525-S2, internal, instance=tess
525,
*Elset, elset=elt519-S1, internal, instance=tess
519,
*Elset, elset=elt499-S2, internal, instance=tess
499,
*Elset, elset=elt551-S2, internal, instance=tess
551,
*Elset, elset=elt489-S1, internal, instance=tess
489,
*Elset, elset=elt512-S2, internal, instance=tess
512,
*Elset, elset=elt547-S3, internal, instance=tess
547,
*Elset, elset=elt539-S3, internal, instance=tess
539,
*Elset, elset=elt533-S1, internal, instance=tess
533,
*Elset, elset=elt675-S4, internal, instance=tess
675,
*Elset, elset=elt671-S4, internal, instance=tess
671,
*Elset, elset=elt640-S4, internal, instance=tess
640,
*Elset, elset=elt732-S2, internal, instance=tess
732,
*Elset, elset=elt739-S1, internal, instance=tess
739,
*Elset, elset=elt765-S4, internal, instance=tess
765,
*Elset, elset=elt728-S3, internal, instance=tess
728,
*Elset, elset=elt688-S2, internal, instance=tess
688,
*Elset, elset=elt764-S3, internal, instance=tess
764,
*Elset, elset=elt711-S4, internal, instance=tess
711,
*Elset, elset=elt691-S1, internal, instance=tess
691,
*Elset, elset=elt750-S1, internal, instance=tess
750,
*Elset, elset=elt744-S3, internal, instance=tess
744,
*Elset, elset=elt721-S3, internal, instance=tess
721,
*Elset, elset=elt704-S3, internal, instance=tess
704,
*Elset, elset=elt703-S3, internal, instance=tess
703,
*Elset, elset=elt761-S4, internal, instance=tess
761,
*Elset, elset=elt682-S1, internal, instance=tess
682,
*Elset, elset=elt755-S2, internal, instance=tess
755,
*Elset, elset=elt692-S3, internal, instance=tess
692,
*Elset, elset=elt710-S4, internal, instance=tess
710,
*Elset, elset=elt772-S2, internal, instance=tess
772,
*Elset, elset=elt762-S2, internal, instance=tess
762,
*Elset, elset=elt685-S2, internal, instance=tess
685,
*Elset, elset=elt681-S3, internal, instance=tess
681,
*Elset, elset=elt723-S2, internal, instance=tess
723,
*Elset, elset=elt740-S2, internal, instance=tess
740,
*Elset, elset=elt719-S4, internal, instance=tess
719,
*Elset, elset=elt726-S3, internal, instance=tess
726,
*Elset, elset=elt684-S2, internal, instance=tess
684,
*Elset, elset=elt731-S1, internal, instance=tess
731,
*Elset, elset=elt793-S3, internal, instance=tess
793,
*Elset, elset=elt782-S3, internal, instance=tess
782,
*Elset, elset=elt803-S3, internal, instance=tess
803,
*Surface, type=ELEMENT, name=x1
elt229-S4, S4
elt525-S2, S2
elt519-S1, S1
elt499-S2, S2
elt551-S2, S2
elt489-S1, S1
elt512-S2, S2
elt547-S3, S3
elt539-S3, S3
elt533-S1, S1
elt675-S4, S4
elt671-S4, S4
elt640-S4, S4
elt732-S2, S2
elt739-S1, S1
elt765-S4, S4
elt728-S3, S3
elt688-S2, S2
elt764-S3, S3
elt711-S4, S4
elt691-S1, S1
elt750-S1, S1
elt744-S3, S3
elt721-S3, S3
elt704-S3, S3
elt703-S3, S3
elt761-S4, S4
elt682-S1, S1
elt755-S2, S2
elt692-S3, S3
elt710-S4, S4
elt772-S2, S2
elt762-S2, S2
elt685-S2, S2
elt681-S3, S3
elt723-S2, S2
elt740-S2, S2
elt719-S4, S4
elt726-S3, S3
elt684-S2, S2
elt731-S1, S1
elt793-S3, S3
elt782-S3, S3
elt803-S3, S3
*Elset, elset=elt128-S4, internal, instance=tess
128,
*Elset, elset=elt41-S1, internal, instance=tess
41,
*Elset, elset=elt134-S2, internal, instance=tess
134,
*Elset, elset=elt20-S2, internal, instance=tess
20,
*Elset, elset=elt74-S4, internal, instance=tess
74,
*Elset, elset=elt25-S3, internal, instance=tess
25,
*Elset, elset=elt6-S1, internal, instance=tess
6,
*Elset, elset=elt42-S3, internal, instance=tess
42,
*Elset, elset=elt113-S3, internal, instance=tess
113,
*Elset, elset=elt40-S3, internal, instance=tess
40,
*Elset, elset=elt66-S3, internal, instance=tess
66,
*Elset, elset=elt67-S4, internal, instance=tess
67,
*Elset, elset=elt61-S1, internal, instance=tess
61,
*Elset, elset=elt9-S4, internal, instance=tess
9,
*Elset, elset=elt2-S1, internal, instance=tess
2,
*Elset, elset=elt54-S2, internal, instance=tess
54,
*Elset, elset=elt30-S1, internal, instance=tess
30,
*Elset, elset=elt68-S2, internal, instance=tess
68,
*Elset, elset=elt38-S4, internal, instance=tess
38,
*Elset, elset=elt13-S1, internal, instance=tess
13,
*Elset, elset=elt114-S4, internal, instance=tess
114,
*Elset, elset=elt17-S2, internal, instance=tess
17,
*Elset, elset=elt122-S4, internal, instance=tess
122,
*Elset, elset=elt82-S2, internal, instance=tess
82,
*Elset, elset=elt57-S1, internal, instance=tess
57,
*Elset, elset=elt28-S2, internal, instance=tess
28,
*Elset, elset=elt44-S2, internal, instance=tess
44,
*Elset, elset=elt73-S1, internal, instance=tess
73,
*Elset, elset=elt27-S3, internal, instance=tess
27,
*Elset, elset=elt62-S3, internal, instance=tess
62,
*Elset, elset=elt125-S1, internal, instance=tess
125,
*Elset, elset=elt118-S3, internal, instance=tess
118,
*Elset, elset=elt90-S3, internal, instance=tess
90,
*Elset, elset=elt127-S2, internal, instance=tess
127,
*Elset, elset=elt91-S1, internal, instance=tess
91,
*Elset, elset=elt95-S1, internal, instance=tess
95,
*Elset, elset=elt31-S1, internal, instance=tess
31,
*Elset, elset=elt72-S1, internal, instance=tess
72,
*Elset, elset=elt241-S1, internal, instance=tess
241,
*Elset, elset=elt135-S3, internal, instance=tess
135,
*Elset, elset=elt142-S4, internal, instance=tess
142,
*Elset, elset=elt242-S1, internal, instance=tess
242,
*Elset, elset=elt181-S1, internal, instance=tess
181,
*Elset, elset=elt146-S3, internal, instance=tess
146,
*Elset, elset=elt254-S4, internal, instance=tess
254,
*Elset, elset=elt162-S4, internal, instance=tess
162,
*Elset, elset=elt145-S1, internal, instance=tess
145,
*Elset, elset=elt158-S1, internal, instance=tess
158,
*Elset, elset=elt207-S3, internal, instance=tess
207,
*Elset, elset=elt178-S2, internal, instance=tess
178,
*Elset, elset=elt161-S2, internal, instance=tess
161,
*Elset, elset=elt239-S1, internal, instance=tess
239,
*Elset, elset=elt243-S4, internal, instance=tess
243,
*Elset, elset=elt137-S1, internal, instance=tess
137,
*Elset, elset=elt212-S3, internal, instance=tess
212,
*Elset, elset=elt229-S1, internal, instance=tess
229,
*Elset, elset=elt233-S1, internal, instance=tess
233,
*Elset, elset=elt180-S1, internal, instance=tess
180,
*Elset, elset=elt215-S4, internal, instance=tess
215,
*Elset, elset=elt221-S4, internal, instance=tess
221,
*Elset, elset=elt141-S4, internal, instance=tess
141,
*Elset, elset=elt171-S3, internal, instance=tess
171,
*Elset, elset=elt551-S4, internal, instance=tess
551,
*Elset, elset=elt486-S3, internal, instance=tess
486,
*Elset, elset=elt543-S1, internal, instance=tess
543,
*Elset, elset=elt552-S1, internal, instance=tess
552,
*Elset, elset=elt516-S1, internal, instance=tess
516,
*Elset, elset=elt488-S3, internal, instance=tess
488,
*Elset, elset=elt619-S2, internal, instance=tess
619,
*Elset, elset=elt617-S4, internal, instance=tess
617,
*Elset, elset=elt615-S3, internal, instance=tess
615,
*Elset, elset=elt629-S2, internal, instance=tess
629,
*Elset, elset=elt562-S1, internal, instance=tess
562,
*Elset, elset=elt706-S3, internal, instance=tess
706,
*Elset, elset=elt758-S4, internal, instance=tess
758,
*Elset, elset=elt683-S2, internal, instance=tess
683,
*Elset, elset=elt716-S1, internal, instance=tess
716,
*Elset, elset=elt733-S1, internal, instance=tess
733,
*Elset, elset=elt754-S1, internal, instance=tess
754,
*Elset, elset=elt734-S1, internal, instance=tess
734,
*Elset, elset=elt723-S1, internal, instance=tess
723,
*Elset, elset=elt708-S1, internal, instance=tess
708,
*Elset, elset=elt721-S2, internal, instance=tess
721,
*Elset, elset=elt711-S2, internal, instance=tess
711,
*Elset, elset=elt777-S2, internal, instance=tess
777,
*Elset, elset=elt861-S3, internal, instance=tess
861,
*Elset, elset=elt819-S3, internal, instance=tess
819,
*Elset, elset=elt831-S3, internal, instance=tess
831,
*Elset, elset=elt793-S2, internal, instance=tess
793,
*Elset, elset=elt776-S3, internal, instance=tess
776,
*Elset, elset=elt775-S2, internal, instance=tess
775,
*Elset, elset=elt904-S4, internal, instance=tess
904,
*Elset, elset=elt832-S4, internal, instance=tess
832,
*Elset, elset=elt865-S3, internal, instance=tess
865,
*Elset, elset=elt812-S4, internal, instance=tess
812,
*Surface, type=ELEMENT, name=y0
elt128-S4, S4
elt41-S1, S1
elt134-S2, S2
elt20-S2, S2
elt74-S4, S4
elt25-S3, S3
elt6-S1, S1
elt42-S3, S3
elt113-S3, S3
elt40-S3, S3
elt66-S3, S3
elt67-S4, S4
elt61-S1, S1
elt9-S4, S4
elt2-S1, S1
elt54-S2, S2
elt30-S1, S1
elt68-S2, S2
elt38-S4, S4
elt13-S1, S1
elt114-S4, S4
elt17-S2, S2
elt122-S4, S4
elt82-S2, S2
elt57-S1, S1
elt28-S2, S2
elt44-S2, S2
elt73-S1, S1
elt27-S3, S3
elt62-S3, S3
elt125-S1, S1
elt118-S3, S3
elt90-S3, S3
elt127-S2, S2
elt91-S1, S1
elt95-S1, S1
elt31-S1, S1
elt72-S1, S1
elt241-S1, S1
elt135-S3, S3
elt142-S4, S4
elt242-S1, S1
elt181-S1, S1
elt146-S3, S3
elt254-S4, S4
elt162-S4, S4
elt145-S1, S1
elt158-S1, S1
elt207-S3, S3
elt178-S2, S2
elt161-S2, S2
elt239-S1, S1
elt243-S4, S4
elt137-S1, S1
elt212-S3, S3
elt229-S1, S1
elt233-S1, S1
elt180-S1, S1
elt215-S4, S4
elt221-S4, S4
elt141-S4, S4
elt171-S3, S3
elt551-S4, S4
elt486-S3, S3
elt543-S1, S1
elt552-S1, S1
elt516-S1, S1
elt488-S3, S3
elt619-S2, S2
elt617-S4, S4
elt615-S3, S3
elt629-S2, S2
elt562-S1, S1
elt706-S3, S3
elt758-S4, S4
elt683-S2, S2
elt716-S1, S1
elt733-S1, S1
elt754-S1, S1
elt734-S1, S1
elt723-S1, S1
elt708-S1, S1
elt721-S2, S2
elt711-S2, S2
elt777-S2, S2
elt861-S3, S3
elt819-S3, S3
elt831-S3, S3
elt793-S2, S2
elt776-S3, S3
elt775-S2, S2
elt904-S4, S4
elt832-S4, S4
elt865-S3, S3
elt812-S4, S4
*Elset, elset=elt296-S3, internal, instance=tess
296,
*Elset, elset=elt287-S4, internal, instance=tess
287,
*Elset, elset=elt294-S1, internal, instance=tess
294,
*Elset, elset=elt293-S3, internal, instance=tess
293,
*Elset, elset=elt278-S1, internal, instance=tess
278,
*Elset, elset=elt281-S3, internal, instance=tess
281,
*Elset, elset=elt264-S3, internal, instance=tess
264,
*Elset, elset=elt310-S2, internal, instance=tess
310,
*Elset, elset=elt270-S1, internal, instance=tess
270,
*Elset, elset=elt400-S2, internal, instance=tess
400,
*Elset, elset=elt397-S3, internal, instance=tess
397,
*Elset, elset=elt340-S4, internal, instance=tess
340,
*Elset, elset=elt339-S3, internal, instance=tess
339,
*Elset, elset=elt384-S4, internal, instance=tess
384,
*Elset, elset=elt395-S3, internal, instance=tess
395,
*Elset, elset=elt367-S1, internal, instance=tess
367,
*Elset, elset=elt352-S1, internal, instance=tess
352,
*Elset, elset=elt342-S1, internal, instance=tess
342,
*Elset, elset=elt369-S4, internal, instance=tess
369,
*Elset, elset=elt366-S3, internal, instance=tess
366,
*Elset, elset=elt378-S2, internal, instance=tess
378,
*Elset, elset=elt332-S3, internal, instance=tess
332,
*Elset, elset=elt375-S2, internal, instance=tess
375,
*Elset, elset=elt358-S3, internal, instance=tess
358,
*Elset, elset=elt386-S3, internal, instance=tess
386,
*Elset, elset=elt333-S3, internal, instance=tess
333,
*Elset, elset=elt394-S1, internal, instance=tess
394,
*Elset, elset=elt381-S3, internal, instance=tess
381,
*Elset, elset=elt338-S1, internal, instance=tess
338,
*Elset, elset=elt356-S2, internal, instance=tess
356,
*Elset, elset=elt371-S3, internal, instance=tess
371,
*Elset, elset=elt388-S3, internal, instance=tess
388,
*Elset, elset=elt335-S4, internal, instance=tess
335,
*Elset, elset=elt458-S3, internal, instance=tess
458,
*Elset, elset=elt427-S4, internal, instance=tess
427,
*Elset, elset=elt429-S2, internal, instance=tess
429,
*Elset, elset=elt448-S1, internal, instance=tess
448,
*Elset, elset=elt419-S4, internal, instance=tess
419,
*Elset, elset=elt401-S4, internal, instance=tess
401,
*Elset, elset=elt540-S4, internal, instance=tess
540,
*Elset, elset=elt497-S3, internal, instance=tess
497,
*Elset, elset=elt539-S2, internal, instance=tess
539,
*Elset, elset=elt507-S2, internal, instance=tess
507,
*Elset, elset=elt533-S2, internal, instance=tess
533,
*Elset, elset=elt670-S2, internal, instance=tess
670,
*Elset, elset=elt644-S3, internal, instance=tess
644,
*Elset, elset=elt654-S1, internal, instance=tess
654,
*Elset, elset=elt652-S1, internal, instance=tess
652,
*Elset, elset=elt673-S3, internal, instance=tess
673,
*Elset, elset=elt666-S4, internal, instance=tess
666,
*Elset, elset=elt671-S1, internal, instance=tess
671,
*Elset, elset=elt642-S3, internal, instance=tess
642,
*Elset, elset=elt739-S4, internal, instance=tess
739,
*Elset, elset=elt763-S1, internal, instance=tess
763,
*Elset, elset=elt703-S1, internal, instance=tess
703,
*Elset, elset=elt749-S1, internal, instance=tess
749,
*Elset, elset=elt709-S4, internal, instance=tess
709,
*Elset, elset=elt748-S1, internal, instance=tess
748,
*Elset, elset=elt686-S1, internal, instance=tess
686,
*Surface, type=ELEMENT, name=y1
elt296-S3, S3
elt287-S4, S4
elt294-S1, S1
elt293-S3, S3
elt278-S1, S1
elt281-S3, S3
elt264-S3, S3
elt310-S2, S2
elt270-S1, S1
elt400-S2, S2
elt397-S3, S3
elt340-S4, S4
elt339-S3, S3
elt384-S4, S4
elt395-S3, S3
elt367-S1, S1
elt352-S1, S1
elt342-S1, S1
elt369-S4, S4
elt366-S3, S3
elt378-S2, S2
elt332-S3, S3
elt375-S2, S2
elt358-S3, S3
elt386-S3, S3
elt333-S3, S3
elt394-S1, S1
elt381-S3, S3
elt338-S1, S1
elt356-S2, S2
elt371-S3, S3
elt388-S3, S3
elt335-S4, S4
elt458-S3, S3
elt427-S4, S4
elt429-S2, S2
elt448-S1, S1
elt419-S4, S4
elt401-S4, S4
elt540-S4, S4
elt497-S3, S3
elt539-S2, S2
elt507-S2, S2
elt533-S2, S2
elt670-S2, S2
elt644-S3, S3
elt654-S1, S1
elt652-S1, S1
elt673-S3, S3
elt666-S4, S4
elt671-S1, S1
elt642-S3, S3
elt739-S4, S4
elt763-S1, S1
elt703-S1, S1
elt749-S1, S1
elt709-S4, S4
elt748-S1, S1
elt686-S1, S1
*Elset, elset=elt172-S3, internal, instance=tess
172,
*Elset, elset=elt209-S3, internal, instance=tess
209,
*Elset, elset=elt201-S4, internal, instance=tess
201,
*Elset, elset=elt161-S4, internal, instance=tess
161,
*Elset, elset=elt145-S2, internal, instance=tess
145,
*Elset, elset=elt136-S1, internal, instance=tess
136,
*Elset, elset=elt204-S1, internal, instance=tess
204,
*Elset, elset=elt253-S4, internal, instance=tess
253,
*Elset, elset=elt242-S2, internal, instance=tess
242,
*Elset, elset=elt232-S2, internal, instance=tess
232,
*Elset, elset=elt229-S2, internal, instance=tess
229,
*Elset, elset=elt197-S2, internal, instance=tess
197,
*Elset, elset=elt247-S4, internal, instance=tess
247,
*Elset, elset=elt207-S1, internal, instance=tess
207,
*Elset, elset=elt223-S4, internal, instance=tess
223,
*Elset, elset=elt228-S3, internal, instance=tess
228,
*Elset, elset=elt173-S4, internal, instance=tess
173,
*Elset, elset=elt177-S3, internal, instance=tess
177,
*Elset, elset=elt165-S3, internal, instance=tess
165,
*Elset, elset=elt302-S3, internal, instance=tess
302,
*Elset, elset=elt270-S2, internal, instance=tess
270,
*Elset, elset=elt675-S3, internal, instance=tess
675,
*Elset, elset=elt641-S1, internal, instance=tess
641,
*Elset, elset=elt649-S2, internal, instance=tess
649,
*Elset, elset=elt645-S3, internal, instance=tess
645,
*Elset, elset=elt656-S1, internal, instance=tess
656,
*Elset, elset=elt663-S3, internal, instance=tess
663,
*Elset, elset=elt647-S3, internal, instance=tess
647,
*Elset, elset=elt659-S3, internal, instance=tess
659,
*Elset, elset=elt640-S3, internal, instance=tess
640,
*Elset, elset=elt668-S4, internal, instance=tess
668,
*Elset, elset=elt692-S4, internal, instance=tess
692,
*Elset, elset=elt755-S1, internal, instance=tess
755,
*Elset, elset=elt750-S3, internal, instance=tess
750,
*Elset, elset=elt771-S2, internal, instance=tess
771,
*Surface, type=ELEMENT, name=z0
elt172-S3, S3
elt209-S3, S3
elt201-S4, S4
elt161-S4, S4
elt145-S2, S2
elt136-S1, S1
elt204-S1, S1
elt253-S4, S4
elt242-S2, S2
elt232-S2, S2
elt229-S2, S2
elt197-S2, S2
elt247-S4, S4
elt207-S1, S1
elt223-S4, S4
elt228-S3, S3
elt173-S4, S4
elt177-S3, S3
elt165-S3, S3
elt302-S3, S3
elt270-S2, S2
elt675-S3, S3
elt641-S1, S1
elt649-S2, S2
elt645-S3, S3
elt656-S1, S1
elt663-S3, S3
elt647-S3, S3
elt659-S3, S3
elt640-S3, S3
elt668-S4, S4
elt692-S4, S4
elt755-S1, S1
elt750-S3, S3
elt771-S2, S2
*Elset, elset=elt30-S4, internal, instance=tess
30,
*Elset, elset=elt394-S2, internal, instance=tess
394,
*Elset, elset=elt414-S3, internal, instance=tess
414,
*Elset, elset=elt447-S4, internal, instance=tess
447,
*Elset, elset=elt431-S3, internal, instance=tess
431,
*Elset, elset=elt429-S4, internal, instance=tess
429,
*Elset, elset=elt402-S4, internal, instance=tess
402,
*Elset, elset=elt456-S3, internal, instance=tess
456,
*Elset, elset=elt428-S1, internal, instance=tess
428,
*Elset, elset=elt490-S3, internal, instance=tess
490,
*Elset, elset=elt552-S4, internal, instance=tess
552,
*Elset, elset=elt526-S2, internal, instance=tess
526,
*Elset, elset=elt518-S4, internal, instance=tess
518,
*Elset, elset=elt493-S2, internal, instance=tess
493,
*Elset, elset=elt504-S2, internal, instance=tess
504,
*Elset, elset=elt549-S4, internal, instance=tess
549,
*Elset, elset=elt528-S2, internal, instance=tess
528,
*Elset, elset=elt541-S3, internal, instance=tess
541,
*Elset, elset=elt538-S4, internal, instance=tess
538,
*Elset, elset=elt544-S1, internal, instance=tess
544,
*Elset, elset=elt543-S2, internal, instance=tess
543,
*Elset, elset=elt497-S2, internal, instance=tess
497,
*Elset, elset=elt525-S3, internal, instance=tess
525,
*Elset, elset=elt482-S3, internal, instance=tess
482,
*Elset, elset=elt505-S3, internal, instance=tess
505,
*Elset, elset=elt536-S2, internal, instance=tess
536,
*Elset, elset=elt508-S3, internal, instance=tess
508,
*Elset, elset=elt546-S3, internal, instance=tess
546,
*Elset, elset=elt614-S3, internal, instance=tess
614,
*Elset, elset=elt612-S2, internal, instance=tess
612,
*Elset, elset=elt630-S4, internal, instance=tess
630,
*Elset, elset=elt562-S4, internal, instance=tess
562,
*Elset, elset=elt621-S1, internal, instance=tess
621,
*Elset, elset=elt628-S2, internal, instance=tess
628,
*Elset, elset=elt637-S4, internal, instance=tess
637,
*Surface, type=ELEMENT, name=z1
elt30-S4, S4
elt394-S2, S2
elt414-S3, S3
elt447-S4, S4
elt431-S3, S3
elt429-S4, S4
elt402-S4, S4
elt456-S3, S3
elt428-S1, S1
elt490-S3, S3
elt552-S4, S4
elt526-S2, S2
elt518-S4, S4
elt493-S2, S2
elt504-S2, S2
elt549-S4, S4
elt528-S2, S2
elt541-S3, S3
elt538-S4, S4
elt544-S1, S1
elt543-S2, S2
elt497-S2, S2
elt525-S3, S3
elt482-S3, S3
elt505-S3, S3
elt536-S2, S2
elt508-S3, S3
elt546-S3, S3
elt614-S3, S3
elt612-S2, S2
elt630-S4, S4
elt562-S4, S4
elt621-S1, S1
elt628-S2, S2
elt637-S4, S4
*End Part
