*Part, name=tess

*Node
1, 0.000000000000, 0.000000000000, 0.000000000000
2, 0.557234046303, 0.000000000000, 0.000000000000
3, 0.000000000000, 0.000000000000, 0.489031099186
4, 0.000000000000, 0.488833207961, 0.000000000000
5, 0.000000000000, 0.447579869627, 0.447511710868
6, 0.132522262716, 0.458634363815, 0.458656177719
7, 0.534516455756, 0.127693333853, 0.464166148942
8, 0.469341397329, 0.124203862456, 0.520610495528
9, 0.459139760864, 0.000000000000, 0.531195319660
10, 0.539876364210, 0.000000000000, 0.461335185568
11, 0.469745610022, 0.520337993451, 0.122810473814
12, 0.533336190728, 0.465334315815, 0.126343882497
13, 0.538209834762, 0.462418218089, 0.000000000000
14, 0.459217017045, 0.530699257616, 0.000000000000
15, 1.000000000000, 0.000000000000, 0.000000000000
16, 1.000000000000, 0.000000000000, 0.526192256014
17, 1.000000000000, 0.525897684932, 0.000000000000
18, 1.000000000000, 0.536593650703, 0.376841007930
19, 1.000000000000, 0.376469089541, 0.536765997697
20, 0.828006707681, 0.430944496975, 0.514052584524
21, 0.827861279188, 0.514458616981, 0.430669351285
22, 0.000000000000, 1.000000000000, 0.000000000000
23, 0.000000000000, 1.000000000000, 0.472772992359
24, 0.461015671512, 1.000000000000, 0.000000000000
25, 0.340687571902, 1.000000000000, 0.516710889479
26, 0.497438988213, 1.000000000000, 0.423262318422
27, 0.496787095244, 0.813207996150, 0.424006167527
28, 0.340698845036, 0.730034491315, 0.517217556117
29, 0.000000000000, 0.473838917342, 0.473757648860
30, 0.136320368938, 0.491297739112, 0.491305982759
31, 0.341330567334, 1.000000000000, 1.000000000000
32, 0.748880617056, 1.000000000000, 1.000000000000
33, 0.341349533632, 0.516913960359, 1.000000000000
34, 0.340990169811, 0.517227557630, 0.729903724735
35, 0.498279897028, 0.423342471014, 1.000000000000
36, 0.699346146750, 0.506381041419, 1.000000000000
37, 0.670858436879, 0.496963826148, 0.728860026496
38, 0.496741089356, 0.424328877504, 0.812701944385
39, 0.698787820946, 1.000000000000, 0.506868920272
40, 0.670585387290, 0.729324316281, 0.496628489620
41, 0.000000000000, 1.000000000000, 1.000000000000
42, 0.000000000000, 0.473138127985, 1.000000000000
43, 1.000000000000, 0.000000000000, 1.000000000000
44, 0.463195988956, 0.000000000000, 1.000000000000
45, 1.000000000000, 0.408416727274, 1.000000000000
46, 0.000000000000, 0.000000000000, 1.000000000000
47, 1.000000000000, 1.000000000000, 0.000000000000
48, 1.000000000000, 1.000000000000, 0.409914534863
49, 1.000000000000, 1.000000000000, 1.000000000000
50, 0.000000000000, 0.000000000000, 0.163010366395
51, 0.000000000000, 0.000000000000, 0.326020732791
52, 0.000000000000, 0.228375385721, 0.467846039344
53, 0.000000000000, 0.374511708325, 0.454289820360
54, 0.000000000000, 0.454314546015, 0.374454676597
55, 0.000000000000, 0.467783898790, 0.228340608056
56, 0.000000000000, 0.325888805307, 0.000000000000
57, 0.000000000000, 0.162944402654, 0.000000000000
58, 0.185744682101, 0.000000000000, 0.000000000000
59, 0.371489364202, 0.000000000000, 0.000000000000
60, 0.548555205256, 0.000000000000, 0.230667592784
61, 0.229569880432, 0.000000000000, 0.510113209423
62, 0.229608508523, 0.509766232788, 0.000000000000
63, 0.547721940533, 0.231209109045, 0.000000000000
64, 0.316103887514, 0.276354651910, 0.492424076148
65, 0.193716137649, 0.397874459847, 0.469912143862
66, 0.193789575700, 0.469844784503, 0.397639157338
67, 0.316324201668, 0.492265625879, 0.275605116576
68, 0.533729612404, 0.352787321828, 0.238951304645
69, 0.534123034080, 0.240240327840, 0.351558726794
70, 0.058947461966, 0.452497038730, 0.452468900870
71, 1.000000000000, 0.000000000000, 0.350794837343
72, 1.000000000000, 0.000000000000, 0.175397418671
73, 1.000000000000, 0.175299228311, 0.000000000000
74, 1.000000000000, 0.350598456621, 0.000000000000
75, 1.000000000000, 0.531245667817, 0.188420503965
76, 1.000000000000, 0.188234544771, 0.531479126855
77, 0.769938182105, 0.000000000000, 0.493763720791
78, 0.778617023151, 0.000000000000, 0.000000000000
79, 0.769104917381, 0.494157951511, 0.000000000000
80, 0.681261581719, 0.279318915414, 0.489109366733
81, 0.680598734958, 0.489896466398, 0.278506616891
82, 0.000000000000, 1.000000000000, 0.236386496179
83, 0.000000000000, 0.829611069320, 0.000000000000
84, 0.000000000000, 0.659222138641, 0.000000000000
85, 0.000000000000, 0.530714905145, 0.473651211282
86, 0.000000000000, 0.644466880751, 0.473438336127
87, 0.000000000000, 0.822233440376, 0.473105664243
88, 0.230507835756, 1.000000000000, 0.000000000000
89, 0.170343785951, 1.000000000000, 0.494741940919
90, 0.479227329862, 1.000000000000, 0.211631159211
91, 0.460116344279, 0.765349628808, 0.000000000000
92, 0.483266352633, 0.666772994800, 0.273408320670
93, 0.247715859455, 0.621420040265, 0.505428959304
94, 0.173452199110, 0.534671839496, 0.496013641607
95, 0.340693208469, 0.865017245657, 0.516964222798
96, 0.060636904310, 0.481604806719, 0.481563354286
97, 0.340901903713, 1.000000000000, 0.677807259653
98, 0.341116235523, 1.000000000000, 0.838903629826
99, 0.545105592195, 1.000000000000, 1.000000000000
100, 0.732183018353, 1.000000000000, 0.835622973424
101, 0.715485419649, 1.000000000000, 0.671245946848
102, 0.341336889433, 0.838971320120, 1.000000000000
103, 0.341343211533, 0.677942640239, 1.000000000000
104, 0.715857636852, 0.670920694279, 1.000000000000
105, 0.732369126954, 0.835460347140, 1.000000000000
106, 0.340844507424, 0.623631024472, 0.623560640426
107, 0.341169851721, 0.517070758994, 0.864951862367
108, 0.670721912085, 0.613144071214, 0.612744258058
109, 0.685102291814, 0.501672433784, 0.864430013248
110, 0.684686604118, 0.864662158140, 0.501748704946
111, 0.000000000000, 0.648758751990, 1.000000000000
112, 0.000000000000, 0.824379375995, 1.000000000000
113, 0.000000000000, 1.000000000000, 0.824257664120
114, 0.000000000000, 1.000000000000, 0.648515328239
115, 0.000000000000, 0.473763164710, 0.530642421473
116, 0.000000000000, 0.473611659446, 0.644411966699
117, 0.000000000000, 0.473374893715, 0.822205983350
118, 0.170665283667, 1.000000000000, 1.000000000000
119, 0.170674766816, 0.495026044172, 1.000000000000
120, 0.247874644601, 0.505430660093, 0.621352517067
121, 0.173505127492, 0.496008712772, 0.534654827528
122, 1.000000000000, 0.000000000000, 0.763096128007
123, 1.000000000000, 0.392442908408, 0.768382998849
124, 1.000000000000, 0.204208363637, 1.000000000000
125, 0.821065329652, 0.000000000000, 1.000000000000
126, 0.642130659304, 0.000000000000, 1.000000000000
127, 0.461167874910, 0.000000000000, 0.765597659830
128, 0.849673073375, 0.457398884347, 1.000000000000
129, 0.480737942992, 0.211671235507, 1.000000000000
130, 0.749432572280, 0.463954161561, 0.621456305510
131, 0.483041243342, 0.274266369980, 0.666656219957
132, 0.000000000000, 0.000000000000, 0.659354066124
133, 0.000000000000, 0.000000000000, 0.829677033062
134, 0.000000000000, 0.236569063992, 1.000000000000
135, 0.231597994478, 0.000000000000, 1.000000000000
136, 1.000000000000, 0.762948842466, 0.000000000000
137, 1.000000000000, 1.000000000000, 0.204957267432
138, 1.000000000000, 0.768296825352, 0.393377771396
139, 0.820338557171, 1.000000000000, 0.000000000000
140, 0.640677114341, 1.000000000000, 0.000000000000
141, 0.849393910473, 1.000000000000, 0.458391727568
142, 0.749223333239, 0.621891466631, 0.463648920453
143, 1.000000000000, 1.000000000000, 0.606609689909
144, 1.000000000000, 1.000000000000, 0.803304844954
145, 1.000000000000, 0.802805575758, 1.000000000000
146, 1.000000000000, 0.605611151516, 1.000000000000
147, 0.874440308528, 1.000000000000, 1.000000000000
148, 0.000000000000, 0.139969057778, 0.305643578190
149, 0.000000000000, 0.323917923267, 0.341880706535
150, 0.000000000000, 0.278552942971, 0.220709516664
151, 0.000000000000, 0.312156737826, 0.096676119289
152, 0.000000000000, 0.148937190205, 0.131006596756
153, 0.109801935365, 0.000000000000, 0.170507535819
154, 0.301383350969, 0.000000000000, 0.185690017532
155, 0.171683579120, 0.000000000000, 0.348324098193
156, 0.395961569574, 0.000000000000, 0.378314476017
157, 0.171616680044, 0.348189567665, 0.000000000000
158, 0.301193115797, 0.185729925540, 0.000000000000
159, 0.109759079657, 0.170458783528, 0.000000000000
160, 0.395722123961, 0.378234728382, 0.000000000000
161, 0.378814062273, 0.366298542392, 0.351235676300
162, 0.544272767715, 0.164847351742, 0.164235524845
163, 0.123231650932, 0.212852700967, 0.480602731387
164, 0.123287047648, 0.480468049323, 0.212673259761
165, 1.000000000000, 0.145289707157, 0.269857006200
166, 1.000000000000, 0.161651521522, 0.104731907941
167, 1.000000000000, 0.298721750564, 0.183136895674
168, 1.000000000000, 0.297948537082, 0.365990955967
169, 1.000000000000, 0.421280829446, 0.111711759327
170, 1.000000000000, 0.415561451554, 0.246529744608
171, 1.000000000000, 0.124769578808, 0.417326785702
172, 0.842675772728, 0.000000000000, 0.275732391745
173, 0.659246693680, 0.000000000000, 0.362215656788
174, 0.712606208782, 0.000000000000, 0.159385725109
175, 0.889308511575, 0.000000000000, 0.087698709336
176, 0.712271070482, 0.159566232272, 0.000000000000
177, 0.658413428957, 0.362683530278, 0.000000000000
178, 0.842331472374, 0.275855140151, 0.000000000000
179, 0.889308511575, 0.087649614156, 0.000000000000
180, 0.680930158338, 0.384607690906, 0.383807991812
181, 0.879867745251, 0.212494507783, 0.515227175436
182, 0.879594155255, 0.515375006390, 0.212406246679
183, 0.000000000000, 0.828078494856, 0.121312992373
184, 0.000000000000, 0.833779116641, 0.306350506105
185, 0.000000000000, 0.706504117409, 0.349383938184
186, 0.000000000000, 0.574940499219, 0.347401620590
187, 0.000000000000, 0.645858647204, 0.185140953292
188, 0.281761834884, 1.000000000000, 0.343898446402
189, 0.311573990197, 1.000000000000, 0.148481374952
190, 0.112844866033, 1.000000000000, 0.341939126875
191, 0.139863902051, 1.000000000000, 0.147504877662
192, 0.293428176881, 0.827388884258, 0.000000000000
193, 0.344862426401, 0.637557930798, 0.000000000000
194, 0.142153908826, 0.688595098370, 0.000000000000
195, 0.127178249974, 0.867786224823, 0.000000000000
196, 0.346430321623, 0.632257655486, 0.398884212922
197, 0.106322972887, 0.766950119441, 0.486921414416
198, 0.143656426590, 0.648937934896, 0.491957094188
199, 0.231866887606, 0.752386339831, 0.503139854345
200, 0.085171892975, 0.911116720188, 0.483923802581
201, 0.212114013200, 0.881958207411, 0.500349879243
202, 0.085677649825, 0.555282351020, 0.484654936708
203, 0.476082558706, 0.849066123952, 0.181809129482
204, 0.419066098341, 0.932508622829, 0.470113270610
205, 0.599309536974, 1.000000000000, 0.906852445528
206, 0.527267547239, 1.000000000000, 0.779187440770
207, 0.443110913859, 1.000000000000, 0.919451814913
208, 0.518765802600, 1.000000000000, 0.604428015199
209, 0.599425656024, 0.906817590727, 1.000000000000
210, 0.443221240814, 0.919485660060, 1.000000000000
211, 0.527551706931, 0.779141947900, 1.000000000000
212, 0.519308186907, 0.604395382737, 1.000000000000
213, 0.341173606081, 0.762501686278, 0.875016185852
214, 0.341192623743, 0.892661328463, 0.893151171809
215, 0.341005820343, 0.861833635919, 0.751836043366
216, 0.340826916354, 0.901808704325, 0.618547613123
217, 0.341172002091, 0.614284101494, 0.869436812394
218, 0.341005639767, 0.694048005462, 0.746749101409
219, 0.340846077344, 0.782192640051, 0.629419650319
220, 0.529350144207, 0.667184184958, 0.567857607445
221, 0.508251043294, 0.557079923655, 0.679271366924
222, 0.688161003277, 0.774410354407, 0.625109575009
223, 0.698887027663, 0.900971532330, 0.605673473228
224, 0.707088489126, 0.843582059482, 0.743105270213
225, 0.691399855814, 0.685723204252, 0.744605956400
226, 0.695857197666, 0.603955512892, 0.869262001686
227, 0.712578817890, 0.762071877471, 0.877676013973
228, 0.727377970380, 0.900107890131, 0.887001492729
229, 0.419724874375, 0.470206615004, 0.932475931184
230, 0.000000000000, 0.590336317275, 0.606974227234
231, 0.000000000000, 0.886940170950, 0.589648524642
232, 0.000000000000, 0.746711362352, 0.599333314663
233, 0.000000000000, 0.856140663988, 0.728948824649
234, 0.000000000000, 0.584430627883, 0.806566178774
235, 0.000000000000, 0.678655620641, 0.720776161622
236, 0.000000000000, 0.753139023873, 0.851594911984
237, 0.000000000000, 0.886731812771, 0.880960280151
238, 0.205697204756, 1.000000000000, 0.617881780138
239, 0.171610808123, 1.000000000000, 0.902465796058
240, 0.176552762216, 1.000000000000, 0.751633482399
241, 0.206019365490, 0.618083437241, 1.000000000000
242, 0.171677009317, 0.902521080926, 1.000000000000
243, 0.176729315467, 0.751775789443, 1.000000000000
244, 0.232114270517, 0.503235084347, 0.752322949568
245, 0.143757197871, 0.492041609200, 0.648891456715
246, 0.106446796906, 0.487099631483, 0.766910464393
247, 0.212446962190, 0.500540288679, 0.881927672130
248, 0.085337383408, 0.484200468944, 0.911102991675
249, 0.085703266435, 0.484721281993, 0.555245001577
250, 1.000000000000, 0.196694148617, 0.730651592535
251, 1.000000000000, 0.100225628063, 0.873436930135
252, 0.633902819325, 0.000000000000, 0.662568450544
253, 0.846320590239, 0.000000000000, 0.700101591593
254, 0.741123584480, 0.000000000000, 0.850756585709
255, 0.592789443535, 0.000000000000, 0.860321408114
256, 0.910532664826, 0.000000000000, 0.881548064004
257, 0.723221948689, 0.180209906121, 1.000000000000
258, 0.878728509916, 0.142312142929, 1.000000000000
259, 0.855716410712, 0.290786253660, 1.000000000000
260, 0.626070373919, 0.078376228326, 1.000000000000
261, 0.684495903293, 0.344964965371, 1.000000000000
262, 0.616266984715, 0.387766430121, 0.663756772616
263, 0.476976827911, 0.182053296598, 0.848991164834
264, 0.839655788737, 0.453602136150, 0.897620533693
265, 0.877829932357, 0.423169578800, 0.636711506312
266, 0.803813220485, 0.455300821669, 0.752910190063
267, 0.000000000000, 0.306395256626, 0.834234789881
268, 0.000000000000, 0.121362956324, 0.828198529367
269, 0.000000000000, 0.348713088662, 0.709078954081
270, 0.000000000000, 0.185213417323, 0.645925287137
271, 0.000000000000, 0.347364737365, 0.575365748182
272, 0.142410644181, 0.000000000000, 0.688773742838
273, 0.345368877671, 0.000000000000, 0.637855434626
274, 0.294343449412, 0.000000000000, 0.827521749645
275, 0.127592301752, 0.000000000000, 0.867863607800
276, 0.282382207107, 0.343970560728, 1.000000000000
277, 0.312866270044, 0.148551379781, 1.000000000000
278, 0.113117942154, 0.342206082770, 1.000000000000
279, 0.140600333657, 0.147839046805, 1.000000000000
280, 0.346411195379, 0.399247096160, 0.632158437692
281, 1.000000000000, 0.649771246585, 0.290899137681
282, 1.000000000000, 0.647097255141, 0.094210251983
283, 1.000000000000, 0.804685694924, 0.163907404748
284, 0.855421016796, 1.000000000000, 0.291639321068
285, 0.878421287001, 1.000000000000, 0.142811910790
286, 0.723734574293, 1.000000000000, 0.178172935483
287, 0.624998649436, 1.000000000000, 0.077960818939
288, 0.684000606764, 1.000000000000, 0.344994397004
289, 0.740251873818, 0.850766616791, 0.000000000000
290, 0.845818083958, 0.700118234366, 0.000000000000
291, 0.633019521267, 0.662691018174, 0.000000000000
292, 0.591488687583, 0.860316026972, 0.000000000000
293, 0.910169278586, 0.881474421233, 0.000000000000
294, 0.616092180673, 0.664218648052, 0.387239703032
295, 0.839467121430, 0.897638815420, 0.454281403912
296, 0.803934393041, 0.752873909026, 0.455386764427
297, 0.879643910512, 0.635429873968, 0.422635296888
298, 1.000000000000, 0.781121267762, 0.634015794207
299, 1.000000000000, 0.869898018058, 0.812355777925
300, 1.000000000000, 0.635461264828, 0.830204338483
301, 1.000000000000, 0.587933204976, 0.596675798349
302, 1.000000000000, 0.865351182006, 0.523374005601
303, 0.869561801542, 1.000000000000, 0.895905928780
304, 0.861866865317, 1.000000000000, 0.736507754301
305, 0.825106803277, 1.000000000000, 0.595924807780
306, 0.869656345615, 0.895705885709, 1.000000000000
307, 0.862248024911, 0.735969389917, 1.000000000000
308, 0.855605040047, 0.605312685103, 1.000000000000
309, 0.757178160125, 0.540891489756, 0.530553518472
310, 0.862846434116, 0.408791989088, 0.178699448705
311, 0.500656485558, 0.813472628593, 0.762737333775
312, 0.549812555313, 0.862628698349, 0.910205543041
313, 0.451500415802, 0.862628698349, 0.713581264019
314, 0.451500415802, 0.862628698349, 0.910205543041
315, 0.130335316062, 0.829631268978, 0.783105432987
316, 0.130335316062, 0.649886310101, 0.783105432987
317, 0.175271540880, 0.604950070381, 0.738169193268
318, 0.175271540880, 0.604950070381, 0.917914032936
319, 0.085399098694, 0.604950070381, 0.648296713829
320, 0.175271540880, 0.694822549820, 0.648296713829
321, 0.872580111027, 0.164266332984, 0.778594553471
322, 0.159778431058, 0.403224140406, 0.725623905659
323, 0.159778431058, 0.403224140406, 0.913981020451
324, 0.840729057789, 0.851439893246, 0.690528810024
325, 0.840729057789, 0.851439893246, 0.903106033802
326, 0.840729057789, 0.851439893246, 0.584240138531
327, 0.653699164645, 0.555143196858, 0.463617045220
328, 0.525993485376, 0.482785123569, 0.353610217665
329, 0.512582409088, 0.314206670088, 0.483783634208
330, 0.655591976563, 0.512351536969, 0.586022120050
331, 0.199300405758, 0.470677700423, 0.470073140894
332, 0.295200132561, 0.490321961679, 0.486417005370
333, 0.457572459477, 0.434291027645, 0.529433096890
334, 0.701734414173, 0.450010230420, 0.509036031398
335, 0.417019038905, 0.499025509990, 0.621394580225
336, 0.425596169170, 0.537390734538, 0.414284486378
337, 0.593438784222, 0.444712867649, 0.487405378863
338, 0.381854268847, 0.608514770359, 0.507716368321
339, 0.542416247640, 0.482555069652, 0.656566155635
340, 0.499898789919, 0.667579357000, 0.428251579803
341, 0.564764054394, 0.480592609059, 0.575254839921

*Element, type=C3D4
1, 150, 157, 164, 161
2, 7, 69, 60, 156
3, 69, 64, 161, 156
4, 4, 157, 62, 164
5, 150, 157, 159, 151
6, 56, 57, 159, 151
7, 163, 64, 161, 65
8, 157, 67, 164, 161
9, 50, 51, 153, 148
10, 163, 155, 3, 148
11, 51, 155, 153, 148
12, 155, 51, 3, 148
13, 67, 160, 62, 11
14, 69, 64, 156, 8
15, 64, 61, 156, 8
16, 61, 64, 156, 155
17, 158, 58, 154, 153
18, 157, 160, 67, 161
19, 70, 53, 5, 54
20, 158, 152, 159, 153
21, 160, 157, 158, 161
22, 59, 158, 162, 63
23, 64, 163, 161, 155
24, 163, 149, 161, 150
25, 161, 158, 162, 154
26, 53, 149, 65, 163
27, 153, 150, 148, 154
28, 163, 149, 150, 148
29, 149, 54, 66, 164
30, 157, 4, 56, 151
31, 8, 61, 156, 9
32, 160, 12, 68, 63
33, 58, 158, 159, 153
34, 59, 158, 154, 162
35, 10, 7, 60, 156
36, 62, 160, 14, 11
37, 160, 157, 67, 62
38, 10, 7, 156, 8
39, 160, 13, 14, 11
40, 57, 152, 159, 151
41, 155, 153, 148, 154
42, 4, 164, 55, 151
43, 69, 161, 162, 154
44, 160, 158, 68, 161
45, 164, 150, 55, 151
46, 149, 65, 66, 6
47, 156, 69, 60, 162
48, 153, 152, 159, 1
49, 156, 69, 162, 154
50, 150, 149, 164, 55
51, 158, 157, 159, 150
52, 149, 163, 52, 148
53, 149, 53, 70, 54
54, 152, 50, 153, 148
55, 149, 53, 52, 163
56, 161, 69, 156, 154
57, 163, 3, 52, 148
58, 157, 56, 159, 151
59, 149, 161, 66, 65
60, 70, 149, 6, 65
61, 2, 59, 162, 63
62, 149, 54, 164, 55
63, 58, 153, 159, 1
64, 61, 64, 155, 163
65, 158, 160, 162, 63
66, 160, 158, 162, 68
67, 12, 160, 13, 63
68, 50, 152, 153, 1
69, 158, 157, 150, 161
70, 160, 12, 13, 11
71, 161, 158, 68, 162
72, 67, 161, 66, 164
73, 152, 150, 159, 151
74, 157, 150, 164, 151
75, 69, 161, 68, 162
76, 152, 158, 159, 150
77, 60, 59, 154, 162
78, 150, 158, 161, 154
79, 152, 150, 148, 153
80, 149, 70, 6, 66
81, 152, 57, 159, 1
82, 163, 61, 3, 155
83, 4, 157, 164, 151
84, 160, 67, 68, 11
85, 12, 160, 68, 11
86, 70, 149, 54, 66
87, 160, 67, 161, 68
88, 59, 2, 162, 60
89, 156, 60, 154, 162
90, 7, 69, 156, 8
91, 59, 58, 154, 158
92, 149, 53, 65, 70
93, 149, 163, 161, 65
94, 10, 8, 156, 9
95, 157, 67, 62, 164
96, 160, 68, 162, 63
97, 154, 148, 161, 150
98, 154, 161, 148, 155
99, 163, 161, 148, 150
100, 163, 148, 161, 155
101, 153, 150, 158, 152
102, 153, 158, 150, 154
103, 161, 155, 156, 64
104, 161, 156, 155, 154
105, 149, 164, 161, 150
106, 161, 164, 149, 66
107, 178, 310, 177, 176
108, 74, 178, 73, 166
109, 21, 170, 182, 18
110, 177, 63, 68, 12
111, 169, 17, 182, 75
112, 178, 172, 310, 174
113, 181, 77, 171, 16
114, 21, 170, 168, 310
115, 162, 174, 2, 176
116, 20, 181, 168, 19
117, 20, 181, 180, 168
118, 170, 18, 75, 182
119, 175, 174, 179, 78
120, 15, 175, 72, 166
121, 174, 162, 2, 60
122, 162, 172, 310, 180
123, 15, 175, 179, 78
124, 175, 15, 179, 166
125, 181, 171, 165, 168
126, 15, 73, 179, 166
127, 172, 178, 310, 165
128, 181, 172, 180, 165
129, 79, 177, 12, 13
130, 63, 177, 13, 12
131, 18, 20, 168, 19
132, 310, 79, 81, 182
133, 63, 162, 2, 176
134, 74, 167, 178, 166
135, 178, 167, 310, 165
136, 167, 310, 165, 168
137, 162, 63, 68, 177
138, 172, 162, 310, 174
139, 10, 77, 173, 7
140, 170, 21, 182, 310
141, 71, 77, 171, 172
142, 172, 71, 72, 165
143, 181, 172, 80, 180
144, 172, 310, 180, 165
145, 162, 172, 69, 173
146, 77, 181, 171, 172
147, 76, 181, 19, 168
148, 78, 174, 179, 176
149, 181, 180, 168, 165
150, 178, 172, 166, 165
151, 21, 310, 180, 81
152, 177, 310, 81, 68
153, 71, 172, 171, 165
154, 162, 172, 180, 69
155, 170, 167, 310, 169
156, 172, 181, 80, 173
157, 175, 172, 166, 174
158, 7, 69, 80, 173
159, 180, 172, 80, 69
160, 310, 162, 180, 68
161, 21, 18, 20, 168
162, 167, 178, 166, 165
163, 21, 170, 18, 168
164, 177, 79, 12, 81
165, 21, 20, 180, 168
166, 69, 7, 60, 173
167, 69, 172, 80, 173
168, 79, 310, 81, 177
169, 21, 310, 81, 182
170, 310, 21, 180, 168
171, 172, 178, 166, 174
172, 181, 77, 80, 173
173, 180, 310, 168, 165
174, 77, 181, 172, 173
175, 10, 7, 173, 60
176, 77, 7, 80, 173
177, 178, 79, 177, 310
178, 172, 162, 174, 173
179, 162, 69, 60, 173
180, 175, 166, 179, 174
181, 174, 162, 60, 173
182, 310, 180, 81, 68
183, 310, 162, 176, 174
184, 180, 162, 69, 68
185, 181, 172, 165, 171
186, 167, 170, 310, 168
187, 174, 78, 2, 176
188, 178, 310, 176, 174
189, 162, 63, 177, 176
190, 76, 181, 171, 16
191, 77, 71, 171, 16
192, 181, 76, 171, 168
193, 310, 162, 177, 176
194, 167, 178, 310, 169
195, 167, 74, 178, 169
196, 162, 310, 177, 68
197, 181, 20, 180, 80
198, 81, 177, 68, 12
199, 73, 178, 179, 166
200, 178, 174, 179, 166
201, 179, 174, 178, 176
202, 182, 169, 170, 310
203, 182, 170, 169, 75
204, 172, 166, 72, 175
205, 72, 166, 172, 165
206, 17, 169, 79, 74
207, 178, 79, 169, 74
208, 178, 169, 79, 310
209, 169, 79, 182, 17
210, 169, 182, 79, 310
211, 95, 28, 196, 27
212, 199, 196, 93, 198
213, 86, 185, 197, 198
214, 196, 92, 192, 203
215, 164, 62, 193, 67
216, 184, 190, 82, 23
217, 199, 28, 93, 196
218, 191, 22, 195, 183
219, 190, 201, 200, 197
220, 95, 188, 196, 199
221, 164, 185, 187, 186
222, 95, 25, 204, 188
223, 195, 191, 183, 192
224, 187, 196, 194, 184
225, 185, 199, 184, 197
226, 92, 196, 193, 67
227, 164, 185, 186, 198
228, 70, 85, 186, 54
229, 89, 188, 201, 190
230, 25, 188, 26, 204
231, 84, 83, 183, 194
232, 83, 195, 183, 194
233, 203, 24, 189, 90
234, 5, 70, 85, 29
235, 188, 204, 90, 26
236, 70, 202, 85, 96
237, 94, 198, 93, 66
238, 164, 187, 55, 186
239, 70, 202, 186, 85
240, 188, 196, 189, 203
241, 29, 70, 85, 96
242, 198, 202, 186, 66
243, 184, 191, 189, 192
244, 196, 192, 189, 203
245, 188, 191, 189, 184
246, 188, 191, 184, 190
247, 196, 184, 189, 192
248, 196, 188, 189, 184
249, 62, 193, 67, 11
250, 190, 191, 184, 82
251, 188, 199, 184, 196
252, 204, 27, 90, 26
253, 199, 185, 184, 196
254, 193, 92, 11, 91
255, 193, 196, 192, 194
256, 193, 164, 67, 194
257, 188, 95, 201, 199
258, 22, 191, 195, 88
259, 195, 192, 183, 194
260, 202, 6, 30, 96
261, 91, 24, 192, 203
262, 196, 67, 187, 194
263, 187, 84, 183, 194
264, 184, 191, 183, 82
265, 192, 184, 183, 194
266, 185, 184, 87, 197
267, 25, 188, 201, 89
268, 92, 196, 192, 193
269, 164, 62, 194, 193
270, 28, 95, 196, 199
271, 196, 92, 203, 27
272, 164, 187, 194, 4
273, 67, 164, 187, 194
274, 164, 66, 186, 54
275, 202, 30, 66, 94
276, 193, 91, 11, 14
277, 202, 86, 186, 85
278, 55, 164, 186, 54
279, 202, 6, 66, 30
280, 62, 164, 194, 4
281, 199, 185, 196, 198
282, 191, 88, 189, 192
283, 185, 86, 186, 198
284, 202, 70, 6, 96
285, 193, 91, 192, 203
286, 89, 190, 200, 23
287, 190, 89, 200, 201
288, 193, 92, 67, 11
289, 190, 184, 200, 23
290, 193, 62, 14, 11
291, 70, 5, 85, 54
292, 196, 193, 67, 194
293, 164, 198, 186, 66
294, 86, 202, 186, 198
295, 66, 70, 186, 54
296, 188, 203, 189, 90
297, 188, 196, 203, 27
298, 92, 193, 192, 203
299, 193, 92, 91, 203
300, 192, 24, 189, 203
301, 184, 187, 183, 194
302, 187, 84, 194, 4
303, 88, 24, 189, 192
304, 187, 164, 55, 4
305, 185, 199, 197, 198
306, 184, 200, 23, 87
307, 185, 86, 197, 87
308, 95, 188, 204, 27
309, 188, 95, 196, 27
310, 191, 22, 183, 82
311, 184, 196, 194, 192
312, 198, 196, 93, 66
313, 184, 200, 87, 197
314, 184, 190, 200, 197
315, 94, 202, 198, 66
316, 22, 83, 195, 183
317, 185, 196, 187, 184
318, 25, 95, 201, 188
319, 191, 88, 192, 195
320, 191, 184, 183, 192
321, 70, 66, 202, 6
322, 202, 66, 70, 186
323, 67, 187, 185, 196
324, 67, 185, 187, 164
325, 198, 67, 185, 196
326, 198, 185, 67, 164
327, 66, 67, 198, 196
328, 66, 198, 67, 164
329, 190, 197, 199, 201
330, 199, 197, 190, 184
331, 199, 188, 190, 201
332, 190, 188, 199, 184
333, 188, 27, 90, 204
334, 90, 27, 188, 203
335, 226, 36, 212, 109
336, 226, 37, 221, 225
337, 313, 215, 97, 216
338, 211, 311, 212, 213
339, 311, 221, 212, 217
340, 103, 33, 217, 212
341, 206, 224, 223, 101
342, 226, 311, 225, 221
343, 219, 215, 218, 313
344, 211, 314, 102, 210
345, 311, 206, 312, 224
346, 314, 214, 102, 210
347, 95, 204, 25, 216
348, 210, 99, 209, 312
349, 219, 311, 218, 220
350, 215, 311, 218, 313
351, 314, 207, 312, 206
352, 206, 207, 312, 205
353, 109, 36, 212, 35
354, 311, 215, 218, 213
355, 313, 208, 206, 223
356, 38, 34, 107, 221
357, 314, 207, 214, 210
358, 313, 208, 97, 206
359, 228, 105, 312, 227
360, 107, 229, 217, 33
361, 224, 206, 312, 205
362, 311, 218, 221, 217
363, 104, 226, 36, 212
364, 219, 28, 220, 106
365, 314, 311, 206, 312
366, 219, 311, 220, 313
367, 228, 224, 312, 205
368, 208, 204, 27, 313
369, 95, 219, 27, 313
370, 228, 100, 205, 32
371, 204, 95, 27, 313
372, 110, 208, 27, 313
373, 222, 110, 27, 313
374, 211, 103, 102, 213
375, 226, 311, 227, 225
376, 204, 208, 27, 26
377, 100, 228, 205, 224
378, 105, 211, 209, 312
379, 217, 103, 212, 213
380, 228, 32, 209, 105
381, 206, 100, 205, 224
382, 204, 208, 216, 313
383, 37, 225, 108, 221
384, 209, 99, 205, 312
385, 207, 99, 31, 210
386, 210, 214, 102, 31
387, 208, 313, 97, 216
388, 204, 208, 26, 25
389, 208, 204, 216, 25
390, 208, 110, 27, 26
391, 99, 207, 312, 210
392, 311, 226, 227, 211
393, 218, 34, 106, 221
394, 207, 314, 312, 210
395, 226, 311, 212, 211
396, 311, 217, 212, 213
397, 226, 104, 211, 212
398, 27, 219, 220, 313
399, 222, 27, 220, 313
400, 107, 34, 217, 221
401, 34, 218, 217, 221
402, 311, 211, 314, 213
403, 228, 105, 209, 312
404, 311, 313, 206, 223
405, 222, 311, 225, 224
406, 311, 211, 227, 312
407, 32, 99, 205, 209
408, 221, 225, 108, 220
409, 218, 311, 213, 217
410, 28, 219, 220, 27
411, 314, 215, 213, 214
412, 106, 218, 221, 220
413, 219, 218, 106, 220
414, 311, 219, 218, 313
415, 226, 38, 109, 212
416, 218, 311, 221, 220
417, 207, 214, 210, 31
418, 211, 314, 210, 312
419, 219, 95, 216, 313
420, 207, 314, 98, 206
421, 215, 314, 313, 98
422, 207, 214, 31, 98
423, 229, 38, 217, 212
424, 314, 313, 98, 206
425, 314, 207, 98, 214
426, 215, 219, 216, 313
427, 314, 211, 102, 213
428, 208, 206, 223, 101
429, 222, 40, 108, 220
430, 33, 229, 217, 212
431, 228, 209, 205, 312
432, 311, 222, 220, 313
433, 222, 311, 220, 225
434, 103, 211, 212, 213
435, 311, 211, 312, 314
436, 38, 221, 217, 212
437, 33, 229, 212, 35
438, 104, 211, 105, 227
439, 311, 224, 312, 227
440, 311, 222, 313, 223
441, 228, 32, 205, 209
442, 314, 215, 214, 98
443, 311, 226, 212, 221
444, 211, 210, 209, 312
445, 224, 228, 312, 227
446, 207, 99, 312, 205
447, 37, 226, 221, 109
448, 38, 37, 221, 109
449, 226, 38, 221, 109
450, 215, 311, 314, 213
451, 208, 110, 39, 223
452, 225, 311, 220, 221
453, 222, 311, 224, 223
454, 206, 100, 224, 101
455, 208, 110, 26, 39
456, 38, 107, 217, 221
457, 208, 39, 101, 223
458, 214, 314, 102, 213
459, 229, 38, 212, 35
460, 311, 225, 224, 227
461, 105, 211, 312, 227
462, 226, 104, 227, 211
463, 38, 109, 212, 35
464, 225, 222, 108, 220
465, 38, 226, 221, 212
466, 28, 219, 27, 95
467, 215, 313, 97, 98
468, 215, 311, 313, 314
469, 95, 204, 216, 313
470, 313, 206, 97, 98
471, 314, 311, 313, 206
472, 311, 206, 224, 223
473, 208, 216, 97, 25
474, 107, 38, 217, 229
475, 27, 222, 40, 110
476, 27, 40, 222, 220
477, 223, 313, 110, 222
478, 223, 110, 313, 208
479, 96, 249, 30, 202
480, 214, 243, 315, 213
481, 319, 249, 230, 202
482, 198, 232, 230, 319
483, 198, 86, 230, 232
484, 112, 237, 243, 236
485, 232, 319, 235, 230
486, 316, 320, 315, 218
487, 240, 214, 315, 215
488, 246, 316, 318, 247
489, 316, 218, 315, 213
490, 240, 113, 114, 233
491, 112, 243, 111, 236
492, 233, 237, 236, 315
493, 316, 235, 234, 236
494, 241, 119, 111, 318
495, 319, 316, 320, 235
496, 42, 248, 117, 234
497, 214, 240, 315, 239
498, 246, 317, 247, 244
499, 237, 243, 236, 315
500, 216, 201, 238, 25
501, 219, 201, 199, 320
502, 243, 237, 242, 315
503, 320, 219, 215, 218
504, 319, 249, 116, 230
505, 113, 237, 315, 239
506, 230, 115, 85, 202
507, 316, 317, 320, 218
508, 118, 239, 31, 242
509, 120, 93, 121, 319
510, 316, 217, 317, 218
511, 216, 238, 215, 97
512, 198, 232, 319, 320
513, 235, 233, 236, 315
514, 248, 246, 318, 247
515, 235, 316, 320, 315
516, 96, 115, 249, 202
517, 238, 240, 315, 215
518, 119, 248, 111, 318
519, 111, 236, 318, 234
520, 86, 230, 85, 202
521, 235, 232, 233, 315
522, 198, 93, 319, 94
523, 216, 238, 315, 215
524, 216, 201, 320, 315
525, 214, 239, 315, 242
526, 216, 25, 238, 97
527, 197, 201, 200, 231
528, 201, 216, 238, 315
529, 238, 114, 200, 231
530, 240, 233, 114, 231
531, 102, 243, 242, 214
532, 316, 217, 218, 213
533, 319, 246, 234, 116
534, 316, 248, 318, 234
535, 239, 237, 242, 41
536, 118, 239, 242, 41
537, 240, 97, 98, 215
538, 317, 217, 247, 244
539, 33, 107, 247, 217
540, 319, 93, 121, 94
541, 249, 115, 230, 202
542, 217, 107, 247, 244
543, 219, 106, 218, 320
544, 319, 235, 230, 234
545, 217, 103, 213, 318
546, 93, 198, 320, 199
547, 216, 219, 320, 201
548, 238, 240, 215, 97
549, 198, 93, 320, 319
550, 106, 219, 28, 320
551, 238, 89, 200, 114
552, 121, 249, 94, 30
553, 120, 319, 317, 320
554, 232, 86, 87, 197
555, 241, 243, 318, 111
556, 319, 230, 116, 234
557, 120, 93, 319, 320
558, 42, 248, 111, 119
559, 240, 113, 315, 239
560, 243, 214, 315, 242
561, 106, 120, 317, 320
562, 120, 106, 93, 320
563, 214, 240, 98, 215
564, 317, 217, 244, 34
565, 319, 316, 246, 317
566, 243, 316, 315, 213
567, 113, 240, 315, 233
568, 199, 219, 28, 95
569, 201, 219, 199, 95
570, 317, 120, 244, 245
571, 218, 215, 315, 213
572, 238, 240, 114, 231
573, 89, 114, 23, 200
574, 246, 248, 234, 117
575, 232, 233, 315, 231
576, 239, 214, 31, 242
577, 237, 113, 41, 239
578, 243, 102, 103, 213
579, 317, 106, 218, 34
580, 320, 215, 315, 218
581, 240, 214, 98, 239
582, 120, 317, 244, 34
583, 87, 197, 200, 231
584, 121, 319, 249, 245
585, 102, 243, 214, 213
586, 249, 115, 116, 230
587, 217, 316, 318, 213
588, 241, 119, 318, 247
589, 316, 248, 234, 246
590, 96, 29, 115, 85
591, 316, 319, 246, 234
592, 201, 238, 231, 315
593, 243, 316, 318, 236
594, 116, 246, 234, 117
595, 30, 249, 94, 202
596, 237, 113, 315, 233
597, 248, 42, 111, 234
598, 236, 316, 318, 234
599, 320, 201, 197, 231
600, 316, 246, 317, 247
601, 232, 198, 197, 320
602, 119, 248, 318, 247
603, 243, 316, 236, 315
604, 237, 239, 242, 315
605, 214, 239, 31, 98
606, 216, 201, 25, 95
607, 243, 236, 318, 111
608, 216, 219, 201, 95
609, 232, 320, 197, 231
610, 87, 232, 197, 231
611, 319, 249, 202, 94
612, 249, 319, 116, 245
613, 320, 232, 315, 231
614, 120, 319, 121, 245
615, 232, 235, 320, 315
616, 217, 107, 244, 34
617, 106, 317, 218, 320
618, 201, 320, 315, 231
619, 120, 106, 317, 34
620, 316, 235, 236, 315
621, 238, 201, 231, 200
622, 238, 201, 200, 89
623, 237, 112, 242, 41
624, 102, 214, 242, 31
625, 112, 237, 242, 243
626, 248, 111, 318, 234
627, 319, 316, 235, 234
628, 319, 246, 245, 317
629, 120, 319, 245, 317
630, 319, 246, 116, 245
631, 246, 317, 244, 245
632, 248, 316, 318, 246
633, 316, 243, 318, 213
634, 319, 121, 249, 94
635, 198, 319, 202, 94
636, 86, 198, 230, 202
637, 198, 319, 230, 202
638, 200, 114, 23, 231
639, 201, 25, 89, 238
640, 87, 200, 23, 231
641, 199, 201, 197, 320
642, 198, 199, 197, 320
643, 198, 86, 232, 197
644, 215, 214, 315, 213
645, 217, 317, 218, 34
646, 219, 199, 28, 320
647, 232, 319, 320, 235
648, 241, 33, 119, 247
649, 316, 319, 320, 317
650, 96, 115, 202, 85
651, 247, 316, 217, 317
652, 247, 217, 316, 318
653, 215, 320, 216, 219
654, 215, 216, 320, 315
655, 231, 240, 315, 238
656, 231, 315, 240, 233
657, 318, 103, 243, 241
658, 318, 243, 103, 213
659, 320, 28, 93, 199
660, 320, 93, 28, 106
661, 318, 103, 247, 217
662, 318, 247, 103, 241
663, 33, 247, 103, 217
664, 33, 103, 247, 241
665, 123, 259, 321, 124
666, 262, 38, 109, 37
667, 254, 255, 263, 252
668, 256, 251, 122, 321
669, 261, 262, 257, 263
670, 254, 255, 260, 257
671, 264, 261, 109, 266
672, 321, 254, 263, 252
673, 44, 263, 129, 260
674, 254, 125, 257, 260
675, 80, 321, 252, 181
676, 254, 321, 257, 258
677, 44, 126, 255, 260
678, 262, 265, 321, 80
679, 253, 321, 122, 250
680, 251, 43, 256, 122
681, 250, 19, 76, 181
682, 253, 321, 250, 181
683, 123, 259, 124, 45
684, 43, 251, 258, 124
685, 123, 321, 250, 124
686, 259, 321, 124, 258
687, 131, 262, 38, 263
688, 253, 122, 16, 250
689, 263, 261, 129, 257
690, 256, 254, 125, 258
691, 253, 16, 77, 181
692, 16, 253, 76, 181
693, 256, 43, 258, 125
694, 254, 126, 125, 260
695, 321, 254, 252, 253
696, 321, 259, 264, 261
697, 262, 321, 266, 261
698, 321, 251, 124, 258
699, 255, 254, 263, 257
700, 125, 254, 257, 258
701, 259, 321, 258, 257
702, 9, 8, 127, 252
703, 321, 251, 122, 250
704, 262, 321, 257, 263
705, 250, 253, 76, 16
706, 36, 35, 109, 261
707, 123, 321, 264, 266
708, 256, 251, 321, 258
709, 321, 262, 257, 261
710, 123, 265, 321, 266
711, 77, 80, 7, 252
712, 8, 9, 10, 252
713, 321, 259, 261, 257
714, 265, 19, 181, 20
715, 265, 321, 181, 250
716, 80, 265, 181, 20
717, 264, 36, 109, 261
718, 321, 264, 266, 261
719, 127, 131, 263, 252
720, 321, 251, 250, 124
721, 35, 38, 261, 129
722, 261, 38, 263, 129
723, 255, 127, 263, 252
724, 265, 262, 321, 266
725, 265, 262, 130, 80
726, 77, 80, 252, 181
727, 253, 250, 76, 181
728, 265, 80, 130, 20
729, 35, 38, 109, 261
730, 254, 256, 321, 258
731, 260, 263, 129, 257
732, 265, 262, 266, 130
733, 254, 321, 263, 257
734, 44, 255, 263, 260
735, 262, 130, 37, 266
736, 45, 259, 128, 264
737, 253, 77, 252, 181
738, 252, 8, 7, 10
739, 256, 254, 321, 253
740, 265, 80, 181, 321
741, 256, 321, 122, 253
742, 8, 131, 252, 7
743, 77, 252, 7, 10
744, 123, 265, 250, 321
745, 8, 131, 127, 252
746, 38, 262, 261, 263
747, 128, 36, 264, 261
748, 259, 128, 264, 261
749, 266, 262, 109, 37
750, 262, 80, 321, 252
751, 261, 262, 109, 266
752, 38, 262, 109, 261
753, 255, 263, 260, 257
754, 80, 262, 131, 252
755, 251, 43, 258, 256
756, 254, 126, 260, 255
757, 44, 127, 263, 255
758, 19, 265, 181, 250
759, 321, 253, 252, 181
760, 265, 123, 250, 19
761, 131, 80, 252, 7
762, 123, 259, 45, 264
763, 123, 259, 264, 321
764, 262, 252, 263, 131
765, 263, 252, 262, 321
766, 267, 268, 322, 279
767, 267, 269, 322, 270
768, 322, 276, 323, 277
769, 163, 270, 322, 271
770, 65, 163, 322, 271
771, 273, 64, 163, 272
772, 131, 280, 263, 38
773, 42, 267, 117, 248
774, 127, 44, 263, 274
775, 280, 34, 244, 107
776, 42, 134, 267, 278
777, 278, 248, 119, 323
778, 246, 267, 269, 322
779, 273, 274, 131, 280
780, 279, 135, 275, 274
781, 279, 322, 323, 277
782, 116, 269, 271, 322
783, 52, 163, 53, 271
784, 268, 279, 275, 274
785, 267, 42, 278, 248
786, 279, 268, 322, 274
787, 64, 273, 131, 280
788, 246, 116, 269, 117
789, 33, 229, 35, 276
790, 322, 280, 244, 107
791, 6, 30, 96, 249
792, 268, 275, 133, 272
793, 278, 42, 119, 248
794, 273, 127, 8, 131
795, 44, 129, 263, 277
796, 70, 115, 53, 271
797, 65, 322, 120, 245
798, 280, 322, 276, 107
799, 244, 322, 107, 323
800, 247, 246, 323, 248
801, 274, 273, 272, 322
802, 276, 322, 263, 277
803, 64, 273, 8, 131
804, 268, 274, 275, 272
805, 270, 269, 322, 271
806, 65, 30, 6, 249
807, 115, 5, 29, 70
808, 115, 70, 29, 96
809, 268, 270, 272, 132
810, 163, 270, 3, 272
811, 322, 280, 120, 244
812, 322, 276, 107, 323
813, 163, 64, 322, 272
814, 280, 276, 38, 107
815, 279, 135, 274, 277
816, 115, 5, 70, 53
817, 249, 116, 271, 245
818, 64, 273, 322, 272
819, 273, 127, 9, 8
820, 44, 135, 277, 274
821, 116, 322, 271, 245
822, 267, 246, 269, 117
823, 115, 116, 271, 249
824, 246, 116, 245, 322
825, 33, 229, 276, 107
826, 64, 273, 61, 8
827, 274, 273, 131, 263
828, 64, 65, 163, 322
829, 279, 268, 275, 46
830, 134, 267, 279, 268
831, 267, 134, 279, 278
832, 70, 65, 271, 53
833, 278, 267, 248, 323
834, 274, 279, 277, 322
835, 249, 65, 121, 245
836, 273, 127, 131, 263
837, 65, 64, 280, 322
838, 229, 129, 38, 35
839, 127, 273, 274, 263
840, 273, 274, 280, 322
841, 248, 247, 119, 323
842, 322, 274, 263, 277
843, 132, 268, 133, 272
844, 270, 163, 322, 272
845, 273, 64, 61, 163
846, 280, 65, 322, 120
847, 64, 273, 280, 322
848, 246, 322, 245, 244
849, 34, 280, 38, 107
850, 6, 65, 249, 271
851, 65, 6, 70, 271
852, 134, 268, 279, 46
853, 229, 129, 35, 276
854, 278, 279, 323, 276
855, 274, 44, 263, 277
856, 276, 229, 38, 107
857, 65, 163, 271, 53
858, 246, 267, 322, 323
859, 267, 279, 322, 323
860, 267, 278, 279, 323
861, 135, 279, 275, 46
862, 119, 278, 323, 276
863, 117, 267, 323, 248
864, 246, 116, 322, 269
865, 270, 132, 3, 272
866, 246, 117, 323, 248
867, 268, 270, 322, 272
868, 268, 46, 133, 275
869, 8, 273, 61, 9
870, 268, 267, 322, 270
871, 246, 267, 323, 117
872, 280, 34, 120, 244
873, 274, 268, 322, 272
874, 30, 65, 121, 249
875, 273, 163, 61, 272
876, 52, 163, 271, 270
877, 61, 163, 3, 272
878, 163, 52, 3, 270
879, 247, 244, 107, 323
880, 65, 120, 121, 245
881, 129, 276, 263, 277
882, 322, 120, 245, 244
883, 322, 280, 276, 263
884, 276, 279, 323, 277
885, 280, 276, 263, 38
886, 280, 263, 274, 131
887, 274, 263, 280, 322
888, 96, 6, 271, 70
889, 271, 6, 96, 249
890, 271, 115, 96, 70
891, 96, 115, 271, 249
892, 245, 271, 65, 322
893, 245, 65, 271, 249
894, 323, 244, 246, 247
895, 323, 246, 244, 322
896, 119, 323, 33, 276
897, 119, 33, 323, 247
898, 107, 33, 323, 276
899, 107, 323, 33, 247
900, 38, 276, 129, 229
901, 38, 129, 276, 263
902, 203, 286, 90, 288
903, 284, 295, 288, 296
904, 137, 284, 138, 48
905, 289, 139, 287, 286
906, 26, 288, 27, 90
907, 26, 39, 110, 288
908, 92, 294, 203, 27
909, 284, 283, 138, 296
910, 292, 289, 286, 203
911, 286, 284, 288, 296
912, 284, 286, 283, 296
913, 13, 291, 12, 79
914, 284, 286, 285, 283
915, 137, 284, 285, 283
916, 281, 18, 182, 75
917, 295, 284, 141, 48
918, 18, 297, 182, 21
919, 286, 289, 296, 294
920, 289, 286, 296, 283
921, 297, 81, 294, 182
922, 283, 281, 138, 296
923, 24, 292, 140, 287
924, 281, 297, 138, 296
925, 40, 294, 110, 296
926, 92, 81, 12, 291
927, 79, 282, 290, 182
928, 289, 286, 203, 294
929, 295, 39, 141, 288
930, 289, 294, 291, 290
931, 295, 284, 138, 296
932, 291, 81, 12, 79
933, 289, 292, 291, 203
934, 286, 289, 285, 283
935, 91, 92, 291, 203
936, 136, 283, 47, 293
937, 284, 295, 138, 48
938, 13, 291, 11, 12
939, 81, 92, 294, 291
940, 142, 81, 297, 21
941, 292, 91, 291, 203
942, 294, 92, 203, 291
943, 139, 47, 285, 293
944, 283, 137, 47, 293
945, 289, 294, 203, 291
946, 281, 283, 282, 182
947, 81, 294, 182, 290
948, 142, 40, 296, 294
949, 292, 286, 287, 203
950, 289, 283, 296, 290
951, 296, 283, 182, 290
952, 283, 136, 282, 290
953, 294, 296, 182, 290
954, 297, 81, 182, 21
955, 295, 39, 288, 110
956, 139, 289, 293, 285
957, 288, 203, 27, 90
958, 294, 203, 27, 288
959, 294, 40, 110, 27
960, 139, 289, 287, 140
961, 17, 79, 182, 282
962, 292, 24, 91, 203
963, 139, 289, 285, 286
964, 203, 286, 287, 90
965, 289, 292, 287, 140
966, 289, 283, 293, 285
967, 91, 92, 11, 291
968, 26, 288, 110, 27
969, 24, 203, 287, 90
970, 136, 17, 282, 290
971, 292, 289, 287, 286
972, 281, 283, 182, 296
973, 282, 281, 182, 75
974, 17, 282, 182, 75
975, 294, 288, 110, 296
976, 294, 297, 182, 296
977, 288, 294, 110, 27
978, 297, 281, 182, 296
979, 24, 292, 287, 203
980, 81, 142, 297, 294
981, 294, 286, 288, 296
982, 291, 13, 11, 14
983, 18, 281, 297, 138
984, 91, 291, 11, 14
985, 18, 281, 182, 297
986, 288, 295, 110, 296
987, 284, 295, 141, 288
988, 294, 286, 203, 288
989, 47, 137, 285, 293
990, 294, 289, 296, 290
991, 17, 79, 282, 290
992, 291, 92, 11, 12
993, 136, 283, 293, 290
994, 297, 142, 296, 294
995, 137, 283, 285, 293
996, 283, 289, 293, 290
997, 294, 81, 291, 290
998, 283, 282, 182, 290
999, 284, 137, 138, 283
1000, 81, 290, 79, 291
1001, 79, 290, 81, 182
1002, 307, 145, 325, 306
1003, 225, 226, 266, 300
1004, 108, 225, 266, 301
1005, 264, 36, 308, 226
1006, 227, 224, 228, 325
1007, 326, 110, 223, 295
1008, 36, 264, 308, 128
1009, 225, 324, 301, 108
1010, 130, 108, 266, 309
1011, 326, 295, 223, 305
1012, 324, 299, 304, 325
1013, 304, 324, 101, 305
1014, 307, 300, 146, 308
1015, 306, 307, 105, 325
1016, 101, 324, 223, 305
1017, 108, 301, 266, 309
1018, 101, 39, 305, 223
1019, 324, 101, 223, 224
1020, 326, 296, 295, 302
1021, 326, 296, 302, 298
1022, 324, 299, 298, 143
1023, 264, 300, 308, 146
1024, 37, 226, 109, 266
1025, 123, 264, 45, 300
1026, 301, 324, 298, 326
1027, 296, 138, 302, 298
1028, 20, 265, 309, 130
1029, 307, 227, 325, 300
1030, 222, 324, 223, 224
1031, 305, 141, 143, 302
1032, 324, 326, 223, 305
1033, 301, 296, 326, 298
1034, 299, 306, 303, 325
1035, 324, 222, 223, 326
1036, 264, 226, 308, 300
1037, 147, 49, 306, 303
1038, 49, 299, 306, 303
1039, 48, 141, 302, 143
1040, 306, 147, 303, 32
1041, 307, 227, 105, 325
1042, 227, 307, 308, 300
1043, 265, 20, 309, 301
1044, 123, 264, 300, 266
1045, 48, 295, 302, 141
1046, 138, 301, 297, 18
1047, 225, 324, 108, 222
1048, 225, 227, 226, 300
1049, 296, 138, 295, 302
1050, 299, 304, 303, 144
1051, 301, 297, 18, 21
1052, 299, 304, 144, 143
1053, 301, 138, 297, 298
1054, 265, 123, 300, 266
1055, 226, 264, 266, 300
1056, 296, 301, 297, 298
1057, 138, 296, 297, 298
1058, 49, 299, 145, 306
1059, 227, 307, 105, 104
1060, 324, 299, 325, 300
1061, 40, 222, 108, 142
1062, 226, 36, 308, 104
1063, 326, 298, 302, 143
1064, 300, 264, 45, 146
1065, 123, 265, 301, 19
1066, 227, 226, 308, 104
1067, 225, 324, 224, 227
1068, 32, 303, 228, 100
1069, 227, 324, 325, 300
1070, 227, 324, 224, 325
1071, 326, 296, 110, 295
1072, 326, 295, 305, 302
1073, 145, 299, 325, 306
1074, 295, 141, 305, 302
1075, 265, 20, 301, 19
1076, 301, 265, 300, 266
1077, 108, 225, 37, 266
1078, 304, 299, 303, 325
1079, 224, 324, 100, 228
1080, 226, 227, 308, 300
1081, 324, 304, 100, 228
1082, 299, 49, 144, 303
1083, 326, 305, 143, 302
1084, 307, 145, 146, 300
1085, 226, 225, 266, 37
1086, 105, 227, 228, 325
1087, 20, 301, 21, 309
1088, 324, 304, 143, 305
1089, 326, 324, 143, 305
1090, 48, 138, 302, 295
1091, 295, 39, 223, 305
1092, 130, 108, 37, 266
1093, 105, 306, 325, 228
1094, 299, 324, 304, 143
1095, 225, 301, 300, 266
1096, 36, 264, 109, 226
1097, 307, 227, 308, 104
1098, 32, 306, 105, 228
1099, 324, 225, 224, 222
1100, 110, 39, 223, 295
1101, 20, 301, 18, 21
1102, 39, 295, 141, 305
1103, 299, 324, 298, 300
1104, 324, 225, 300, 227
1105, 304, 324, 325, 228
1106, 226, 264, 109, 266
1107, 324, 224, 325, 228
1108, 301, 20, 18, 19
1109, 326, 324, 298, 143
1110, 123, 265, 300, 301
1111, 306, 303, 325, 228
1112, 145, 307, 325, 300
1113, 299, 145, 325, 300
1114, 301, 108, 326, 309
1115, 306, 32, 303, 228
1116, 128, 264, 308, 146
1117, 222, 326, 110, 223
1118, 45, 264, 128, 146
1119, 309, 266, 265, 301
1120, 309, 265, 266, 130
1121, 326, 108, 324, 222
1122, 326, 324, 108, 301
1123, 309, 326, 142, 108
1124, 222, 142, 326, 108
1125, 304, 228, 303, 100
1126, 303, 228, 304, 325
1127, 100, 324, 101, 304
1128, 100, 101, 324, 224
1129, 324, 301, 300, 225
1130, 300, 301, 324, 298
1131, 326, 142, 301, 309
1132, 326, 301, 142, 296
1133, 297, 142, 301, 296
1134, 142, 326, 40, 222
1135, 142, 40, 326, 296
1136, 110, 40, 326, 222
1137, 110, 326, 40, 296
1138, 142, 301, 21, 297
1139, 142, 21, 301, 309
1140, 327, 21, 142, 309
1141, 64, 332, 333, 161
1142, 328, 294, 340, 327
1143, 12, 328, 68, 81
1144, 332, 65, 280, 120
1145, 40, 327, 340, 294
1146, 106, 34, 120, 335
1147, 196, 340, 338, 336
1148, 21, 327, 142, 81
1149, 11, 328, 68, 12
1150, 337, 327, 220, 330
1151, 38, 221, 335, 34
1152, 161, 332, 333, 336
1153, 64, 8, 69, 329
1154, 328, 294, 327, 81
1155, 65, 30, 331, 6
1156, 339, 108, 37, 330
1157, 37, 108, 130, 330
1158, 80, 334, 130, 20
1159, 328, 294, 81, 92
1160, 329, 333, 161, 64
1161, 339, 108, 330, 220
1162, 336, 340, 338, 220
1163, 220, 339, 335, 333
1164, 334, 130, 20, 309
1165, 294, 27, 340, 40
1166, 333, 328, 336, 220
1167, 338, 336, 220, 333
1168, 328, 336, 67, 161
1169, 131, 329, 262, 80
1170, 106, 221, 34, 335
1171, 64, 161, 329, 69
1172, 337, 333, 328, 329
1173, 220, 333, 341, 339
1174, 333, 335, 338, 332
1175, 340, 28, 196, 338
1176, 333, 131, 64, 329
1177, 37, 221, 339, 38
1178, 8, 7, 69, 329
1179, 7, 80, 69, 329
1180, 67, 328, 161, 68
1181, 328, 68, 69, 161
1182, 67, 332, 161, 336
1183, 335, 338, 106, 220
1184, 328, 327, 340, 220
1185, 40, 327, 220, 340
1186, 262, 334, 80, 337
1187, 340, 27, 220, 40
1188, 335, 131, 38, 280
1189, 40, 220, 327, 108
1190, 66, 65, 331, 6
1191, 221, 38, 335, 339
1192, 330, 334, 309, 130
1193, 330, 108, 130, 309
1194, 131, 339, 333, 335
1195, 64, 332, 161, 65
1196, 328, 11, 68, 67
1197, 196, 340, 336, 92
1198, 108, 327, 142, 309
1199, 67, 332, 336, 196
1200, 337, 333, 220, 328
1201, 30, 121, 65, 331
1202, 339, 330, 341, 220
1203, 338, 93, 332, 106
1204, 335, 220, 106, 221
1205, 338, 93, 106, 28
1206, 94, 332, 121, 331
1207, 94, 332, 331, 66
1208, 121, 332, 93, 120
1209, 332, 331, 66, 65
1210, 40, 327, 142, 108
1211, 40, 142, 327, 294
1212, 108, 327, 309, 330
1213, 81, 327, 142, 294
1214, 262, 334, 337, 330
1215, 108, 327, 330, 220
1216, 333, 328, 329, 161
1217, 106, 338, 335, 332
1218, 337, 327, 330, 334
1219, 21, 180, 327, 81
1220, 336, 340, 220, 328
1221, 327, 328, 337, 220
1222, 12, 92, 328, 81
1223, 11, 92, 328, 12
1224, 106, 338, 28, 220
1225, 336, 92, 328, 67
1226, 92, 11, 328, 67
1227, 339, 37, 262, 330
1228, 333, 328, 161, 336
1229, 332, 106, 93, 120
1230, 332, 106, 120, 335
1231, 333, 335, 332, 280
1232, 64, 8, 329, 131
1233, 333, 131, 329, 262
1234, 69, 329, 328, 161
1235, 8, 7, 329, 131
1236, 7, 80, 329, 131
1237, 339, 108, 220, 221
1238, 37, 330, 130, 262
1239, 339, 108, 221, 37
1240, 337, 327, 334, 180
1241, 334, 327, 330, 309
1242, 30, 331, 66, 94
1243, 30, 121, 331, 94
1244, 94, 332, 66, 93
1245, 94, 332, 93, 121
1246, 30, 66, 331, 6
1247, 121, 332, 120, 65
1248, 338, 93, 196, 332
1249, 180, 68, 328, 81
1250, 262, 329, 337, 80
1251, 328, 327, 180, 81
1252, 180, 68, 69, 328
1253, 328, 294, 92, 340
1254, 327, 337, 328, 180
1255, 161, 332, 66, 65
1256, 121, 332, 65, 331
1257, 332, 66, 93, 196
1258, 337, 333, 329, 262
1259, 338, 93, 28, 196
1260, 64, 332, 65, 280
1261, 335, 131, 280, 333
1262, 220, 335, 339, 221
1263, 333, 131, 280, 64
1264, 337, 329, 180, 80
1265, 64, 332, 280, 333
1266, 336, 332, 333, 338
1267, 180, 329, 337, 328
1268, 80, 180, 334, 20
1269, 21, 334, 327, 180
1270, 180, 80, 334, 337
1271, 21, 334, 180, 20
1272, 336, 340, 328, 92
1273, 21, 334, 20, 309
1274, 21, 334, 309, 327
1275, 335, 34, 120, 280
1276, 340, 28, 338, 220
1277, 340, 28, 220, 27
1278, 332, 335, 120, 280
1279, 180, 329, 69, 80
1280, 336, 92, 67, 196
1281, 196, 340, 92, 27
1282, 336, 332, 338, 196
1283, 67, 332, 196, 66
1284, 67, 332, 66, 161
1285, 330, 337, 341, 220
1286, 69, 329, 180, 328
1287, 337, 333, 341, 220
1288, 262, 334, 330, 130
1289, 262, 334, 130, 80
1290, 38, 335, 280, 34
1291, 131, 339, 335, 38
1292, 340, 28, 27, 196
1293, 131, 339, 38, 262
1294, 37, 339, 262, 38
1295, 338, 335, 333, 220
1296, 92, 340, 294, 27
1297, 131, 339, 262, 333
1298, 341, 333, 262, 339
1299, 339, 330, 262, 341
1300, 330, 337, 262, 341
1301, 337, 333, 262, 341

*Elset, elset=poly1
1, 2, 3, 4, 5, 6, 7, 8, 9, 10, 11, 12, 13, 14, 15, 16,
17, 18, 19, 20, 21, 22, 23, 24, 25, 26, 27, 28, 29, 30, 31, 32,
33, 34, 35, 36, 37, 38, 39, 40, 41, 42, 43, 44, 45, 46, 47, 48,
49, 50, 51, 52, 53, 54, 55, 56, 57, 58, 59, 60, 61, 62, 63, 64,
65, 66, 67, 68, 69, 70, 71, 72, 73, 74, 75, 76, 77, 78, 79, 80,
81, 82, 83, 84, 85, 86, 87, 88, 89, 90, 91, 92, 93, 94, 95, 96,
97, 98, 99, 100, 101, 102, 103, 104, 105, 106

*Elset, elset=poly2
107, 108, 109, 110, 111, 112, 113, 114, 115, 116, 117, 118, 119, 120,
121, 122, 123, 124, 125, 126, 127, 128, 129, 130, 131, 132, 133, 134,
135, 136, 137, 138, 139, 140, 141, 142, 143, 144, 145, 146, 147, 148,
149, 150, 151, 152, 153, 154, 155, 156, 157, 158, 159, 160, 161, 162,
163, 164, 165, 166, 167, 168, 169, 170, 171, 172, 173, 174, 175, 176,
177, 178, 179, 180, 181, 182, 183, 184, 185, 186, 187, 188, 189, 190,
191, 192, 193, 194, 195, 196, 197, 198, 199, 200, 201, 202, 203, 204,
205, 206, 207, 208, 209, 210

*Elset, elset=poly3
211, 212, 213, 214, 215, 216, 217, 218, 219, 220, 221, 222, 223, 224,
225, 226, 227, 228, 229, 230, 231, 232, 233, 234, 235, 236, 237, 238,
239, 240, 241, 242, 243, 244, 245, 246, 247, 248, 249, 250, 251, 252,
253, 254, 255, 256, 257, 258, 259, 260, 261, 262, 263, 264, 265, 266,
267, 268, 269, 270, 271, 272, 273, 274, 275, 276, 277, 278, 279, 280,
281, 282, 283, 284, 285, 286, 287, 288, 289, 290, 291, 292, 293, 294,
295, 296, 297, 298, 299, 300, 301, 302, 303, 304, 305, 306, 307, 308,
309, 310, 311, 312, 313, 314, 315, 316, 317, 318, 319, 320, 321, 322,
323, 324, 325, 326, 327, 328, 329, 330, 331, 332, 333, 334

*Elset, elset=poly4
335, 336, 337, 338, 339, 340, 341, 342, 343, 344, 345, 346, 347, 348,
349, 350, 351, 352, 353, 354, 355, 356, 357, 358, 359, 360, 361, 362,
363, 364, 365, 366, 367, 368, 369, 370, 371, 372, 373, 374, 375, 376,
377, 378, 379, 380, 381, 382, 383, 384, 385, 386, 387, 388, 389, 390,
391, 392, 393, 394, 395, 396, 397, 398, 399, 400, 401, 402, 403, 404,
405, 406, 407, 408, 409, 410, 411, 412, 413, 414, 415, 416, 417, 418,
419, 420, 421, 422, 423, 424, 425, 426, 427, 428, 429, 430, 431, 432,
433, 434, 435, 436, 437, 438, 439, 440, 441, 442, 443, 444, 445, 446,
447, 448, 449, 450, 451, 452, 453, 454, 455, 456, 457, 458, 459, 460,
461, 462, 463, 464, 465, 466, 467, 468, 469, 470, 471, 472, 473, 474,
475, 476, 477, 478

*Elset, elset=poly5
479, 480, 481, 482, 483, 484, 485, 486, 487, 488, 489, 490, 491, 492,
493, 494, 495, 496, 497, 498, 499, 500, 501, 502, 503, 504, 505, 506,
507, 508, 509, 510, 511, 512, 513, 514, 515, 516, 517, 518, 519, 520,
521, 522, 523, 524, 525, 526, 527, 528, 529, 530, 531, 532, 533, 534,
535, 536, 537, 538, 539, 540, 541, 542, 543, 544, 545, 546, 547, 548,
549, 550, 551, 552, 553, 554, 555, 556, 557, 558, 559, 560, 561, 562,
563, 564, 565, 566, 567, 568, 569, 570, 571, 572, 573, 574, 575, 576,
577, 578, 579, 580, 581, 582, 583, 584, 585, 586, 587, 588, 589, 590,
591, 592, 593, 594, 595, 596, 597, 598, 599, 600, 601, 602, 603, 604,
605, 606, 607, 608, 609, 610, 611, 612, 613, 614, 615, 616, 617, 618,
619, 620, 621, 622, 623, 624, 625, 626, 627, 628, 629, 630, 631, 632,
633, 634, 635, 636, 637, 638, 639, 640, 641, 642, 643, 644, 645, 646,
647, 648, 649, 650, 651, 652, 653, 654, 655, 656, 657, 658, 659, 660,
661, 662, 663, 664

*Elset, elset=poly6
665, 666, 667, 668, 669, 670, 671, 672, 673, 674, 675, 676, 677, 678,
679, 680, 681, 682, 683, 684, 685, 686, 687, 688, 689, 690, 691, 692,
693, 694, 695, 696, 697, 698, 699, 700, 701, 702, 703, 704, 705, 706,
707, 708, 709, 710, 711, 712, 713, 714, 715, 716, 717, 718, 719, 720,
721, 722, 723, 724, 725, 726, 727, 728, 729, 730, 731, 732, 733, 734,
735, 736, 737, 738, 739, 740, 741, 742, 743, 744, 745, 746, 747, 748,
749, 750, 751, 752, 753, 754, 755, 756, 757, 758, 759, 760, 761, 762,
763, 764, 765

*Elset, elset=poly7
766, 767, 768, 769, 770, 771, 772, 773, 774, 775, 776, 777, 778, 779,
780, 781, 782, 783, 784, 785, 786, 787, 788, 789, 790, 791, 792, 793,
794, 795, 796, 797, 798, 799, 800, 801, 802, 803, 804, 805, 806, 807,
808, 809, 810, 811, 812, 813, 814, 815, 816, 817, 818, 819, 820, 821,
822, 823, 824, 825, 826, 827, 828, 829, 830, 831, 832, 833, 834, 835,
836, 837, 838, 839, 840, 841, 842, 843, 844, 845, 846, 847, 848, 849,
850, 851, 852, 853, 854, 855, 856, 857, 858, 859, 860, 861, 862, 863,
864, 865, 866, 867, 868, 869, 870, 871, 872, 873, 874, 875, 876, 877,
878, 879, 880, 881, 882, 883, 884, 885, 886, 887, 888, 889, 890, 891,
892, 893, 894, 895, 896, 897, 898, 899, 900, 901

*Elset, elset=poly8
902, 903, 904, 905, 906, 907, 908, 909, 910, 911, 912, 913, 914, 915,
916, 917, 918, 919, 920, 921, 922, 923, 924, 925, 926, 927, 928, 929,
930, 931, 932, 933, 934, 935, 936, 937, 938, 939, 940, 941, 942, 943,
944, 945, 946, 947, 948, 949, 950, 951, 952, 953, 954, 955, 956, 957,
958, 959, 960, 961, 962, 963, 964, 965, 966, 967, 968, 969, 970, 971,
972, 973, 974, 975, 976, 977, 978, 979, 980, 981, 982, 983, 984, 985,
986, 987, 988, 989, 990, 991, 992, 993, 994, 995, 996, 997, 998, 999,
1000, 1001

*Elset, elset=poly9
1002, 1003, 1004, 1005, 1006, 1007, 1008, 1009, 1010, 1011, 1012, 1013,
1014, 1015, 1016, 1017, 1018, 1019, 1020, 1021, 1022, 1023, 1024, 1025,
1026, 1027, 1028, 1029, 1030, 1031, 1032, 1033, 1034, 1035, 1036, 1037,
1038, 1039, 1040, 1041, 1042, 1043, 1044, 1045, 1046, 1047, 1048, 1049,
1050, 1051, 1052, 1053, 1054, 1055, 1056, 1057, 1058, 1059, 1060, 1061,
1062, 1063, 1064, 1065, 1066, 1067, 1068, 1069, 1070, 1071, 1072, 1073,
1074, 1075, 1076, 1077, 1078, 1079, 1080, 1081, 1082, 1083, 1084, 1085,
1086, 1087, 1088, 1089, 1090, 1091, 1092, 1093, 1094, 1095, 1096, 1097,
1098, 1099, 1100, 1101, 1102, 1103, 1104, 1105, 1106, 1107, 1108, 1109,
1110, 1111, 1112, 1113, 1114, 1115, 1116, 1117, 1118, 1119, 1120, 1121,
1122, 1123, 1124, 1125, 1126, 1127, 1128, 1129, 1130, 1131, 1132, 1133,
1134, 1135, 1136, 1137, 1138, 1139

*Elset, elset=poly10
1140, 1141, 1142, 1143, 1144, 1145, 1146, 1147, 1148, 1149, 1150, 1151,
1152, 1153, 1154, 1155, 1156, 1157, 1158, 1159, 1160, 1161, 1162, 1163,
1164, 1165, 1166, 1167, 1168, 1169, 1170, 1171, 1172, 1173, 1174, 1175,
1176, 1177, 1178, 1179, 1180, 1181, 1182, 1183, 1184, 1185, 1186, 1187,
1188, 1189, 1190, 1191, 1192, 1193, 1194, 1195, 1196, 1197, 1198, 1199,
1200, 1201, 1202, 1203, 1204, 1205, 1206, 1207, 1208, 1209, 1210, 1211,
1212, 1213, 1214, 1215, 1216, 1217, 1218, 1219, 1220, 1221, 1222, 1223,
1224, 1225, 1226, 1227, 1228, 1229, 1230, 1231, 1232, 1233, 1234, 1235,
1236, 1237, 1238, 1239, 1240, 1241, 1242, 1243, 1244, 1245, 1246, 1247,
1248, 1249, 1250, 1251, 1252, 1253, 1254, 1255, 1256, 1257, 1258, 1259,
1260, 1261, 1262, 1263, 1264, 1265, 1266, 1267, 1268, 1269, 1270, 1271,
1272, 1273, 1274, 1275, 1276, 1277, 1278, 1279, 1280, 1281, 1282, 1283,
1284, 1285, 1286, 1287, 1288, 1289, 1290, 1291, 1292, 1293, 1294, 1295,
1296, 1297, 1298, 1299, 1300, 1301

*Nset, nset=x0
1, 3, 4, 5, 22, 23, 29, 41, 42, 46, 50, 51, 52, 53, 54, 55,
56, 57, 82, 83, 84, 85, 86, 87, 111, 112, 113, 114, 115, 116, 117, 132,
133, 134, 148, 149, 150, 151, 152, 183, 184, 185, 186, 187, 230, 231,
232, 233, 234, 235, 236, 237, 267, 268, 269, 270, 271

*Nset, nset=x1
15, 16, 17, 18, 19, 43, 45, 47, 48, 49, 71, 72, 73, 74, 75, 76,
122, 123, 124, 136, 137, 138, 143, 144, 145, 146, 165, 166, 167, 168,
169, 170, 171, 250, 251, 281, 282, 283, 298, 299, 300, 301, 302

*Nset, nset=y0
1, 2, 3, 9, 10, 15, 16, 43, 44, 46, 50, 51, 58, 59, 60, 61,
71, 72, 77, 78, 122, 125, 126, 127, 132, 133, 135, 153, 154, 155, 156,
172, 173, 174, 175, 252, 253, 254, 255, 256, 272, 273, 274, 275

*Nset, nset=y1
22, 23, 24, 25, 26, 31, 32, 39, 41, 47, 48, 49, 82, 88, 89, 90,
97, 98, 99, 100, 101, 113, 114, 118, 137, 139, 140, 141, 143, 144, 147,
188, 189, 190, 191, 205, 206, 207, 208, 238, 239, 240, 284, 285, 286,
287, 288, 303, 304, 305

*Nset, nset=z0
1, 2, 4, 13, 14, 15, 17, 22, 24, 47, 56, 57, 58, 59, 62, 63,
73, 74, 78, 79, 83, 84, 88, 91, 136, 139, 140, 157, 158, 159, 160, 176,
177, 178, 179, 192, 193, 194, 195, 289, 290, 291, 292, 293

*Nset, nset=z1
31, 32, 33, 35, 36, 41, 42, 43, 44, 45, 46, 49, 99, 102, 103, 104,
105, 111, 112, 118, 119, 124, 125, 126, 128, 129, 134, 135, 145, 146,
147, 209, 210, 211, 212, 241, 242, 243, 257, 258, 259, 260, 261, 276,
277, 278, 279, 306, 307, 308

*Nset, nset=x0y1
22, 23, 41, 82, 113, 114

*Nset, nset=x0z1
41, 42, 46, 111, 112, 134

*Nset, nset=x0y0
1, 3, 46, 50, 51, 132, 133

*Nset, nset=x0z0
1, 4, 22, 56, 57, 83, 84

*Nset, nset=x1y0
15, 16, 43, 71, 72, 122

*Nset, nset=x1z1
43, 45, 49, 124, 145, 146

*Nset, nset=x1y1
47, 48, 49, 137, 143, 144

*Nset, nset=x1z0
15, 17, 47, 73, 74, 136

*Nset, nset=y0z1
43, 44, 46, 125, 126, 135

*Nset, nset=y0z0
1, 2, 15, 58, 59, 78

*Nset, nset=y1z0
22, 24, 47, 88, 139, 140

*Nset, nset=y1z1
31, 32, 41, 49, 99, 118, 147

*Nset, nset=x0y0z0
1

*Nset, nset=x1y0z0
15

*Nset, nset=x1y1z0
47

*Nset, nset=x0y1z0
22

*Nset, nset=x0y0z1
46

*Nset, nset=x0y1z1
41

*Nset, nset=x1y1z1
49

*Nset, nset=x1y0z1
43

*Elset, elset=elt28-S3, internal, instance=tess
28,
*Elset, elset=elt52-S4, internal, instance=tess
52,
*Elset, elset=elt73-S2, internal, instance=tess
73,
*Elset, elset=elt40-S2, internal, instance=tess
40,
*Elset, elset=elt79-S1, internal, instance=tess
79,
*Elset, elset=elt19-S3, internal, instance=tess
19,
*Elset, elset=elt54-S2, internal, instance=tess
54,
*Elset, elset=elt30-S3, internal, instance=tess
30,
*Elset, elset=elt42-S4, internal, instance=tess
42,
*Elset, elset=elt62-S2, internal, instance=tess
62,
*Elset, elset=elt53-S2, internal, instance=tess
53,
*Elset, elset=elt57-S3, internal, instance=tess
57,
*Elset, elset=elt12-S3, internal, instance=tess
12,
*Elset, elset=elt81-S2, internal, instance=tess
81,
*Elset, elset=elt68-S2, internal, instance=tess
68,
*Elset, elset=elt50-S2, internal, instance=tess
50,
*Elset, elset=elt6-S2, internal, instance=tess
6,
*Elset, elset=elt45-S3, internal, instance=tess
45,
*Elset, elset=elt9-S2, internal, instance=tess
9,
*Elset, elset=elt55-S1, internal, instance=tess
55,
*Elset, elset=elt264-S4, internal, instance=tess
264,
*Elset, elset=elt310-S3, internal, instance=tess
310,
*Elset, elset=elt316-S2, internal, instance=tess
316,
*Elset, elset=elt266-S1, internal, instance=tess
266,
*Elset, elset=elt221-S3, internal, instance=tess
221,
*Elset, elset=elt283-S1, internal, instance=tess
283,
*Elset, elset=elt306-S4, internal, instance=tess
306,
*Elset, elset=elt216-S4, internal, instance=tess
216,
*Elset, elset=elt291-S3, internal, instance=tess
291,
*Elset, elset=elt277-S3, internal, instance=tess
277,
*Elset, elset=elt234-S4, internal, instance=tess
234,
*Elset, elset=elt228-S3, internal, instance=tess
228,
*Elset, elset=elt301-S1, internal, instance=tess
301,
*Elset, elset=elt317-S4, internal, instance=tess
317,
*Elset, elset=elt304-S4, internal, instance=tess
304,
*Elset, elset=elt302-S2, internal, instance=tess
302,
*Elset, elset=elt263-S1, internal, instance=tess
263,
*Elset, elset=elt238-S3, internal, instance=tess
238,
*Elset, elset=elt278-S4, internal, instance=tess
278,
*Elset, elset=elt307-S2, internal, instance=tess
307,
*Elset, elset=elt231-S1, internal, instance=tess
231,
*Elset, elset=elt506-S1, internal, instance=tess
506,
*Elset, elset=elt520-S1, internal, instance=tess
520,
*Elset, elset=elt575-S2, internal, instance=tess
575,
*Elset, elset=elt610-S2, internal, instance=tess
610,
*Elset, elset=elt556-S3, internal, instance=tess
556,
*Elset, elset=elt594-S4, internal, instance=tess
594,
*Elset, elset=elt586-S3, internal, instance=tess
586,
*Elset, elset=elt496-S4, internal, instance=tess
496,
*Elset, elset=elt597-S3, internal, instance=tess
597,
*Elset, elset=elt483-S3, internal, instance=tess
483,
*Elset, elset=elt554-S1, internal, instance=tess
554,
*Elset, elset=elt590-S3, internal, instance=tess
590,
*Elset, elset=elt521-S1, internal, instance=tess
521,
*Elset, elset=elt519-S2, internal, instance=tess
519,
*Elset, elset=elt491-S4, internal, instance=tess
491,
*Elset, elset=elt492-S1, internal, instance=tess
492,
*Elset, elset=elt596-S2, internal, instance=tess
596,
*Elset, elset=elt577-S1, internal, instance=tess
577,
*Elset, elset=elt513-S1, internal, instance=tess
513,
*Elset, elset=elt493-S3, internal, instance=tess
493,
*Elset, elset=elt490-S3, internal, instance=tess
490,
*Elset, elset=elt530-S3, internal, instance=tess
530,
*Elset, elset=elt640-S4, internal, instance=tess
640,
*Elset, elset=elt638-S3, internal, instance=tess
638,
*Elset, elset=elt623-S2, internal, instance=tess
623,
*Elset, elset=elt484-S2, internal, instance=tess
484,
*Elset, elset=elt485-S4, internal, instance=tess
485,
*Elset, elset=elt544-S3, internal, instance=tess
544,
*Elset, elset=elt830-S2, internal, instance=tess
830,
*Elset, elset=elt852-S2, internal, instance=tess
852,
*Elset, elset=elt868-S1, internal, instance=tess
868,
*Elset, elset=elt822-S4, internal, instance=tess
822,
*Elset, elset=elt805-S2, internal, instance=tess
805,
*Elset, elset=elt782-S1, internal, instance=tess
782,
*Elset, elset=elt773-S1, internal, instance=tess
773,
*Elset, elset=elt776-S1, internal, instance=tess
776,
*Elset, elset=elt796-S3, internal, instance=tess
796,
*Elset, elset=elt816-S2, internal, instance=tess
816,
*Elset, elset=elt807-S1, internal, instance=tess
807,
*Elset, elset=elt823-S1, internal, instance=tess
823,
*Elset, elset=elt870-S2, internal, instance=tess
870,
*Elset, elset=elt767-S2, internal, instance=tess
767,
*Elset, elset=elt878-S3, internal, instance=tess
878,
*Elset, elset=elt865-S1, internal, instance=tess
865,
*Elset, elset=elt809-S2, internal, instance=tess
809,
*Elset, elset=elt783-S4, internal, instance=tess
783,
*Elset, elset=elt876-S4, internal, instance=tess
876,
*Elset, elset=elt788-S3, internal, instance=tess
788,
*Elset, elset=elt843-S1, internal, instance=tess
843,
*Surface, type=ELEMENT, name=x0
elt28-S3, S3
elt52-S4, S4
elt73-S2, S2
elt40-S2, S2
elt79-S1, S1
elt19-S3, S3
elt54-S2, S2
elt30-S3, S3
elt42-S4, S4
elt62-S2, S2
elt53-S2, S2
elt57-S3, S3
elt12-S3, S3
elt81-S2, S2
elt68-S2, S2
elt50-S2, S2
elt6-S2, S2
elt45-S3, S3
elt9-S2, S2
elt55-S1, S1
elt264-S4, S4
elt310-S3, S3
elt316-S2, S2
elt266-S1, S1
elt221-S3, S3
elt283-S1, S1
elt306-S4, S4
elt216-S4, S4
elt291-S3, S3
elt277-S3, S3
elt234-S4, S4
elt228-S3, S3
elt301-S1, S1
elt317-S4, S4
elt304-S4, S4
elt302-S2, S2
elt263-S1, S1
elt238-S3, S3
elt278-S4, S4
elt307-S2, S2
elt231-S1, S1
elt506-S1, S1
elt520-S1, S1
elt575-S2, S2
elt610-S2, S2
elt556-S3, S3
elt594-S4, S4
elt586-S3, S3
elt496-S4, S4
elt597-S3, S3
elt483-S3, S3
elt554-S1, S1
elt590-S3, S3
elt521-S1, S1
elt519-S2, S2
elt491-S4, S4
elt492-S1, S1
elt596-S2, S2
elt577-S1, S1
elt513-S1, S1
elt493-S3, S3
elt490-S3, S3
elt530-S3, S3
elt640-S4, S4
elt638-S3, S3
elt623-S2, S2
elt484-S2, S2
elt485-S4, S4
elt544-S3, S3
elt830-S2, S2
elt852-S2, S2
elt868-S1, S1
elt822-S4, S4
elt805-S2, S2
elt782-S1, S1
elt773-S1, S1
elt776-S1, S1
elt796-S3, S3
elt816-S2, S2
elt807-S1, S1
elt823-S1, S1
elt870-S2, S2
elt767-S2, S2
elt878-S3, S3
elt865-S1, S1
elt809-S2, S2
elt783-S4, S4
elt876-S4, S4
elt788-S3, S3
elt843-S1, S1
*Elset, elset=elt162-S4, internal, instance=tess
162,
*Elset, elset=elt136-S4, internal, instance=tess
136,
*Elset, elset=elt155-S2, internal, instance=tess
155,
*Elset, elset=elt186-S2, internal, instance=tess
186,
*Elset, elset=elt125-S3, internal, instance=tess
125,
*Elset, elset=elt147-S4, internal, instance=tess
147,
*Elset, elset=elt192-S3, internal, instance=tess
192,
*Elset, elset=elt205-S2, internal, instance=tess
205,
*Elset, elset=elt142-S3, internal, instance=tess
142,
*Elset, elset=elt163-S3, internal, instance=tess
163,
*Elset, elset=elt131-S4, internal, instance=tess
131,
*Elset, elset=elt118-S1, internal, instance=tess
118,
*Elset, elset=elt108-S4, internal, instance=tess
108,
*Elset, elset=elt134-S2, internal, instance=tess
134,
*Elset, elset=elt126-S2, internal, instance=tess
126,
*Elset, elset=elt120-S4, internal, instance=tess
120,
*Elset, elset=elt190-S4, internal, instance=tess
190,
*Elset, elset=elt191-S3, internal, instance=tess
191,
*Elset, elset=elt111-S2, internal, instance=tess
111,
*Elset, elset=elt206-S2, internal, instance=tess
206,
*Elset, elset=elt195-S2, internal, instance=tess
195,
*Elset, elset=elt203-S3, internal, instance=tess
203,
*Elset, elset=elt153-S4, internal, instance=tess
153,
*Elset, elset=elt705-S4, internal, instance=tess
705,
*Elset, elset=elt683-S4, internal, instance=tess
683,
*Elset, elset=elt685-S4, internal, instance=tess
685,
*Elset, elset=elt688-S3, internal, instance=tess
688,
*Elset, elset=elt681-S1, internal, instance=tess
681,
*Elset, elset=elt720-S3, internal, instance=tess
720,
*Elset, elset=elt760-S3, internal, instance=tess
760,
*Elset, elset=elt680-S2, internal, instance=tess
680,
*Elset, elset=elt684-S2, internal, instance=tess
684,
*Elset, elset=elt703-S3, internal, instance=tess
703,
*Elset, elset=elt946-S1, internal, instance=tess
946,
*Elset, elset=elt973-S2, internal, instance=tess
973,
*Elset, elset=elt952-S1, internal, instance=tess
952,
*Elset, elset=elt904-S4, internal, instance=tess
904,
*Elset, elset=elt974-S2, internal, instance=tess
974,
*Elset, elset=elt970-S1, internal, instance=tess
970,
*Elset, elset=elt944-S1, internal, instance=tess
944,
*Elset, elset=elt999-S3, internal, instance=tess
999,
*Elset, elset=elt936-S1, internal, instance=tess
936,
*Elset, elset=elt922-S1, internal, instance=tess
922,
*Elset, elset=elt983-S2, internal, instance=tess
983,
*Elset, elset=elt916-S2, internal, instance=tess
916,
*Elset, elset=elt1103-S4, internal, instance=tess
1103,
*Elset, elset=elt1130-S2, internal, instance=tess
1130,
*Elset, elset=elt1110-S4, internal, instance=tess
1110,
*Elset, elset=elt1053-S2, internal, instance=tess
1053,
*Elset, elset=elt1027-S3, internal, instance=tess
1027,
*Elset, elset=elt1113-S2, internal, instance=tess
1113,
*Elset, elset=elt1046-S2, internal, instance=tess
1046,
*Elset, elset=elt1108-S4, internal, instance=tess
1108,
*Elset, elset=elt1025-S4, internal, instance=tess
1025,
*Elset, elset=elt1064-S4, internal, instance=tess
1064,
*Elset, elset=elt1084-S3, internal, instance=tess
1084,
*Elset, elset=elt1052-S4, internal, instance=tess
1052,
*Elset, elset=elt1022-S3, internal, instance=tess
1022,
*Elset, elset=elt1058-S1, internal, instance=tess
1058,
*Elset, elset=elt1082-S1, internal, instance=tess
1082,
*Elset, elset=elt1090-S1, internal, instance=tess
1090,
*Elset, elset=elt1039-S4, internal, instance=tess
1039,
*Elset, elset=elt1065-S4, internal, instance=tess
1065,
*Elset, elset=elt1063-S3, internal, instance=tess
1063,
*Surface, type=ELEMENT, name=x1
elt162-S4, S4
elt136-S4, S4
elt155-S2, S2
elt186-S2, S2
elt125-S3, S3
elt147-S4, S4
elt192-S3, S3
elt205-S2, S2
elt142-S3, S3
elt163-S3, S3
elt131-S4, S4
elt118-S1, S1
elt108-S4, S4
elt134-S2, S2
elt126-S2, S2
elt120-S4, S4
elt190-S4, S4
elt191-S3, S3
elt111-S2, S2
elt206-S2, S2
elt195-S2, S2
elt203-S3, S3
elt153-S4, S4
elt705-S4, S4
elt683-S4, S4
elt685-S4, S4
elt688-S3, S3
elt681-S1, S1
elt720-S3, S3
elt760-S3, S3
elt680-S2, S2
elt684-S2, S2
elt703-S3, S3
elt946-S1, S1
elt973-S2, S2
elt952-S1, S1
elt904-S4, S4
elt974-S2, S2
elt970-S1, S1
elt944-S1, S1
elt999-S3, S3
elt936-S1, S1
elt922-S1, S1
elt983-S2, S2
elt916-S2, S2
elt1103-S4, S4
elt1130-S2, S2
elt1110-S4, S4
elt1053-S2, S2
elt1027-S3, S3
elt1113-S2, S2
elt1046-S2, S2
elt1108-S4, S4
elt1025-S4, S4
elt1064-S4, S4
elt1084-S3, S3
elt1052-S4, S4
elt1022-S3, S3
elt1058-S1, S1
elt1082-S1, S1
elt1090-S1, S1
elt1039-S4, S4
elt1065-S4, S4
elt1063-S3, S3
*Elset, elset=elt41-S2, internal, instance=tess
41,
*Elset, elset=elt17-S3, internal, instance=tess
17,
*Elset, elset=elt91-S1, internal, instance=tess
91,
*Elset, elset=elt104-S3, internal, instance=tess
104,
*Elset, elset=elt16-S4, internal, instance=tess
16,
*Elset, elset=elt88-S2, internal, instance=tess
88,
*Elset, elset=elt94-S4, internal, instance=tess
94,
*Elset, elset=elt35-S4, internal, instance=tess
35,
*Elset, elset=elt82-S3, internal, instance=tess
82,
*Elset, elset=elt77-S1, internal, instance=tess
77,
*Elset, elset=elt12-S1, internal, instance=tess
12,
*Elset, elset=elt63-S2, internal, instance=tess
63,
*Elset, elset=elt68-S4, internal, instance=tess
68,
*Elset, elset=elt31-S3, internal, instance=tess
31,
*Elset, elset=elt89-S1, internal, instance=tess
89,
*Elset, elset=elt11-S1, internal, instance=tess
11,
*Elset, elset=elt9-S1, internal, instance=tess
9,
*Elset, elset=elt178-S4, internal, instance=tess
178,
*Elset, elset=elt174-S4, internal, instance=tess
174,
*Elset, elset=elt191-S2, internal, instance=tess
191,
*Elset, elset=elt157-S2, internal, instance=tess
157,
*Elset, elset=elt204-S4, internal, instance=tess
204,
*Elset, elset=elt123-S2, internal, instance=tess
123,
*Elset, elset=elt119-S2, internal, instance=tess
119,
*Elset, elset=elt120-S1, internal, instance=tess
120,
*Elset, elset=elt187-S1, internal, instance=tess
187,
*Elset, elset=elt121-S4, internal, instance=tess
121,
*Elset, elset=elt181-S4, internal, instance=tess
181,
*Elset, elset=elt142-S1, internal, instance=tess
142,
*Elset, elset=elt139-S1, internal, instance=tess
139,
*Elset, elset=elt141-S2, internal, instance=tess
141,
*Elset, elset=elt175-S4, internal, instance=tess
175,
*Elset, elset=elt695-S3, internal, instance=tess
695,
*Elset, elset=elt737-S1, internal, instance=tess
737,
*Elset, elset=elt667-S2, internal, instance=tess
667,
*Elset, elset=elt690-S1, internal, instance=tess
690,
*Elset, elset=elt723-S2, internal, instance=tess
723,
*Elset, elset=elt739-S2, internal, instance=tess
739,
*Elset, elset=elt756-S2, internal, instance=tess
756,
*Elset, elset=elt712-S3, internal, instance=tess
712,
*Elset, elset=elt702-S4, internal, instance=tess
702,
*Elset, elset=elt741-S4, internal, instance=tess
741,
*Elset, elset=elt694-S1, internal, instance=tess
694,
*Elset, elset=elt691-S1, internal, instance=tess
691,
*Elset, elset=elt693-S2, internal, instance=tess
693,
*Elset, elset=elt680-S3, internal, instance=tess
680,
*Elset, elset=elt757-S2, internal, instance=tess
757,
*Elset, elset=elt688-S1, internal, instance=tess
688,
*Elset, elset=elt677-S1, internal, instance=tess
677,
*Elset, elset=elt743-S2, internal, instance=tess
743,
*Elset, elset=elt801-S1, internal, instance=tess
801,
*Elset, elset=elt875-S4, internal, instance=tess
875,
*Elset, elset=elt804-S3, internal, instance=tess
804,
*Elset, elset=elt792-S3, internal, instance=tess
792,
*Elset, elset=elt877-S4, internal, instance=tess
877,
*Elset, elset=elt865-S3, internal, instance=tess
865,
*Elset, elset=elt774-S2, internal, instance=tess
774,
*Elset, elset=elt820-S2, internal, instance=tess
820,
*Elset, elset=elt839-S1, internal, instance=tess
839,
*Elset, elset=elt869-S3, internal, instance=tess
869,
*Elset, elset=elt780-S3, internal, instance=tess
780,
*Elset, elset=elt843-S4, internal, instance=tess
843,
*Elset, elset=elt868-S3, internal, instance=tess
868,
*Elset, elset=elt861-S4, internal, instance=tess
861,
*Elset, elset=elt819-S1, internal, instance=tess
819,
*Surface, type=ELEMENT, name=y0
elt41-S2, S2
elt17-S3, S3
elt91-S1, S1
elt104-S3, S3
elt16-S4, S4
elt88-S2, S2
elt94-S4, S4
elt35-S4, S4
elt82-S3, S3
elt77-S1, S1
elt12-S1, S1
elt63-S2, S2
elt68-S4, S4
elt31-S3, S3
elt89-S1, S1
elt11-S1, S1
elt9-S1, S1
elt178-S4, S4
elt174-S4, S4
elt191-S2, S2
elt157-S2, S2
elt204-S4, S4
elt123-S2, S2
elt119-S2, S2
elt120-S1, S1
elt187-S1, S1
elt121-S4, S4
elt181-S4, S4
elt142-S1, S1
elt139-S1, S1
elt141-S2, S2
elt175-S4, S4
elt695-S3, S3
elt737-S1, S1
elt667-S2, S2
elt690-S1, S1
elt723-S2, S2
elt739-S2, S2
elt756-S2, S2
elt712-S3, S3
elt702-S4, S4
elt741-S4, S4
elt694-S1, S1
elt691-S1, S1
elt693-S2, S2
elt680-S3, S3
elt757-S2, S2
elt688-S1, S1
elt677-S1, S1
elt743-S2, S2
elt801-S1, S1
elt875-S4, S4
elt804-S3, S3
elt792-S3, S3
elt877-S4, S4
elt865-S3, S3
elt774-S2, S2
elt820-S2, S2
elt839-S1, S1
elt869-S3, S3
elt780-S3, S3
elt843-S4, S4
elt868-S3, S3
elt861-S4, S4
elt819-S1, S1
*Elset, elset=elt235-S4, internal, instance=tess
235,
*Elset, elset=elt230-S1, internal, instance=tess
230,
*Elset, elset=elt246-S2, internal, instance=tess
246,
*Elset, elset=elt245-S1, internal, instance=tess
245,
*Elset, elset=elt296-S4, internal, instance=tess
296,
*Elset, elset=elt233-S3, internal, instance=tess
233,
*Elset, elset=elt216-S3, internal, instance=tess
216,
*Elset, elset=elt303-S1, internal, instance=tess
303,
*Elset, elset=elt267-S2, internal, instance=tess
267,
*Elset, elset=elt310-S2, internal, instance=tess
310,
*Elset, elset=elt286-S2, internal, instance=tess
286,
*Elset, elset=elt258-S2, internal, instance=tess
258,
*Elset, elset=elt229-S2, internal, instance=tess
229,
*Elset, elset=elt250-S2, internal, instance=tess
250,
*Elset, elset=elt282-S1, internal, instance=tess
282,
*Elset, elset=elt370-S3, internal, instance=tess
370,
*Elset, elset=elt407-S1, internal, instance=tess
407,
*Elset, elset=elt352-S2, internal, instance=tess
352,
*Elset, elset=elt385-S1, internal, instance=tess
385,
*Elset, elset=elt446-S2, internal, instance=tess
446,
*Elset, elset=elt422-S4, internal, instance=tess
422,
*Elset, elset=elt420-S4, internal, instance=tess
420,
*Elset, elset=elt388-S3, internal, instance=tess
388,
*Elset, elset=elt473-S4, internal, instance=tess
473,
*Elset, elset=elt455-S4, internal, instance=tess
455,
*Elset, elset=elt454-S2, internal, instance=tess
454,
*Elset, elset=elt470-S3, internal, instance=tess
470,
*Elset, elset=elt457-S1, internal, instance=tess
457,
*Elset, elset=elt381-S1, internal, instance=tess
381,
*Elset, elset=elt358-S3, internal, instance=tess
358,
*Elset, elset=elt428-S2, internal, instance=tess
428,
*Elset, elset=elt639-S3, internal, instance=tess
639,
*Elset, elset=elt526-S3, internal, instance=tess
526,
*Elset, elset=elt605-S3, internal, instance=tess
605,
*Elset, elset=elt508-S1, internal, instance=tess
508,
*Elset, elset=elt577-S3, internal, instance=tess
577,
*Elset, elset=elt536-S2, internal, instance=tess
536,
*Elset, elset=elt573-S1, internal, instance=tess
573,
*Elset, elset=elt581-S4, internal, instance=tess
581,
*Elset, elset=elt559-S2, internal, instance=tess
559,
*Elset, elset=elt548-S2, internal, instance=tess
548,
*Elset, elset=elt490-S1, internal, instance=tess
490,
*Elset, elset=elt537-S1, internal, instance=tess
537,
*Elset, elset=elt551-S2, internal, instance=tess
551,
*Elset, elset=elt572-S1, internal, instance=tess
572,
*Elset, elset=elt914-S1, internal, instance=tess
914,
*Elset, elset=elt963-S4, internal, instance=tess
963,
*Elset, elset=elt969-S4, internal, instance=tess
969,
*Elset, elset=elt923-S4, internal, instance=tess
923,
*Elset, elset=elt915-S1, internal, instance=tess
915,
*Elset, elset=elt907-S2, internal, instance=tess
907,
*Elset, elset=elt906-S2, internal, instance=tess
906,
*Elset, elset=elt911-S1, internal, instance=tess
911,
*Elset, elset=elt960-S4, internal, instance=tess
960,
*Elset, elset=elt964-S3, internal, instance=tess
964,
*Elset, elset=elt905-S3, internal, instance=tess
905,
*Elset, elset=elt987-S4, internal, instance=tess
987,
*Elset, elset=elt917-S3, internal, instance=tess
917,
*Elset, elset=elt904-S2, internal, instance=tess
904,
*Elset, elset=elt902-S3, internal, instance=tess
902,
*Elset, elset=elt943-S1, internal, instance=tess
943,
*Elset, elset=elt989-S1, internal, instance=tess
989,
*Elset, elset=elt929-S3, internal, instance=tess
929,
*Elset, elset=elt1082-S3, internal, instance=tess
1082,
*Elset, elset=elt1037-S2, internal, instance=tess
1037,
*Elset, elset=elt1125-S4, internal, instance=tess
1125,
*Elset, elset=elt1050-S3, internal, instance=tess
1050,
*Elset, elset=elt1039-S2, internal, instance=tess
1039,
*Elset, elset=elt1018-S1, internal, instance=tess
1018,
*Elset, elset=elt1102-S4, internal, instance=tess
1102,
*Elset, elset=elt1088-S3, internal, instance=tess
1088,
*Elset, elset=elt1068-S2, internal, instance=tess
1068,
*Elset, elset=elt1040-S3, internal, instance=tess
1040,
*Elset, elset=elt1127-S4, internal, instance=tess
1127,
*Elset, elset=elt1052-S3, internal, instance=tess
1052,
*Elset, elset=elt1031-S1, internal, instance=tess
1031,
*Elset, elset=elt1013-S4, internal, instance=tess
1013,
*Surface, type=ELEMENT, name=y1
elt235-S4, S4
elt230-S1, S1
elt246-S2, S2
elt245-S1, S1
elt296-S4, S4
elt233-S3, S3
elt216-S3, S3
elt303-S1, S1
elt267-S2, S2
elt310-S2, S2
elt286-S2, S2
elt258-S2, S2
elt229-S2, S2
elt250-S2, S2
elt282-S1, S1
elt370-S3, S3
elt407-S1, S1
elt352-S2, S2
elt385-S1, S1
elt446-S2, S2
elt422-S4, S4
elt420-S4, S4
elt388-S3, S3
elt473-S4, S4
elt455-S4, S4
elt454-S2, S2
elt470-S3, S3
elt457-S1, S1
elt381-S1, S1
elt358-S3, S3
elt428-S2, S2
elt639-S3, S3
elt526-S3, S3
elt605-S3, S3
elt508-S1, S1
elt577-S3, S3
elt536-S2, S2
elt573-S1, S1
elt581-S4, S4
elt559-S2, S2
elt548-S2, S2
elt490-S1, S1
elt537-S1, S1
elt551-S2, S2
elt572-S1, S1
elt914-S1, S1
elt963-S4, S4
elt969-S4, S4
elt923-S4, S4
elt915-S1, S1
elt907-S2, S2
elt906-S2, S2
elt911-S1, S1
elt960-S4, S4
elt964-S3, S3
elt905-S3, S3
elt987-S4, S4
elt917-S3, S3
elt904-S2, S2
elt902-S3, S3
elt943-S1, S1
elt989-S1, S1
elt929-S3, S3
elt1082-S3, S3
elt1037-S2, S2
elt1125-S4, S4
elt1050-S3, S3
elt1039-S2, S2
elt1018-S1, S1
elt1102-S4, S4
elt1088-S3, S3
elt1068-S2, S2
elt1040-S3, S3
elt1127-S4, S4
elt1052-S3, S3
elt1031-S1, S1
elt1013-S4, S4
*Elset, elset=elt61-S2, internal, instance=tess
61,
*Elset, elset=elt51-S1, internal, instance=tess
51,
*Elset, elset=elt33-S1, internal, instance=tess
33,
*Elset, elset=elt91-S2, internal, instance=tess
91,
*Elset, elset=elt21-S1, internal, instance=tess
21,
*Elset, elset=elt37-S2, internal, instance=tess
37,
*Elset, elset=elt67-S3, internal, instance=tess
67,
*Elset, elset=elt39-S1, internal, instance=tess
39,
*Elset, elset=elt4-S1, internal, instance=tess
4,
*Elset, elset=elt22-S2, internal, instance=tess
22,
*Elset, elset=elt30-S1, internal, instance=tess
30,
*Elset, elset=elt81-S3, internal, instance=tess
81,
*Elset, elset=elt63-S4, internal, instance=tess
63,
*Elset, elset=elt65-S2, internal, instance=tess
65,
*Elset, elset=elt36-S1, internal, instance=tess
36,
*Elset, elset=elt6-S1, internal, instance=tess
6,
*Elset, elset=elt58-S1, internal, instance=tess
58,
*Elset, elset=elt206-S4, internal, instance=tess
206,
*Elset, elset=elt107-S4, internal, instance=tess
107,
*Elset, elset=elt177-S1, internal, instance=tess
177,
*Elset, elset=elt201-S4, internal, instance=tess
201,
*Elset, elset=elt199-S1, internal, instance=tess
199,
*Elset, elset=elt123-S4, internal, instance=tess
123,
*Elset, elset=elt148-S4, internal, instance=tess
148,
*Elset, elset=elt126-S1, internal, instance=tess
126,
*Elset, elset=elt133-S4, internal, instance=tess
133,
*Elset, elset=elt187-S3, internal, instance=tess
187,
*Elset, elset=elt129-S2, internal, instance=tess
129,
*Elset, elset=elt108-S1, internal, instance=tess
108,
*Elset, elset=elt130-S1, internal, instance=tess
130,
*Elset, elset=elt207-S2, internal, instance=tess
207,
*Elset, elset=elt189-S3, internal, instance=tess
189,
*Elset, elset=elt255-S4, internal, instance=tess
255,
*Elset, elset=elt269-S3, internal, instance=tess
269,
*Elset, elset=elt259-S2, internal, instance=tess
259,
*Elset, elset=elt232-S2, internal, instance=tess
232,
*Elset, elset=elt302-S3, internal, instance=tess
302,
*Elset, elset=elt280-S4, internal, instance=tess
280,
*Elset, elset=elt261-S1, internal, instance=tess
261,
*Elset, elset=elt303-S2, internal, instance=tess
303,
*Elset, elset=elt290-S1, internal, instance=tess
290,
*Elset, elset=elt276-S2, internal, instance=tess
276,
*Elset, elset=elt319-S3, internal, instance=tess
319,
*Elset, elset=elt316-S1, internal, instance=tess
316,
*Elset, elset=elt258-S4, internal, instance=tess
258,
*Elset, elset=elt231-S2, internal, instance=tess
231,
*Elset, elset=elt285-S1, internal, instance=tess
285,
*Elset, elset=elt930-S4, internal, instance=tess
930,
*Elset, elset=elt1000-S3, internal, instance=tess
1000,
*Elset, elset=elt933-S1, internal, instance=tess
933,
*Elset, elset=elt956-S1, internal, instance=tess
956,
*Elset, elset=elt941-S1, internal, instance=tess
941,
*Elset, elset=elt996-S3, internal, instance=tess
996,
*Elset, elset=elt965-S2, internal, instance=tess
965,
*Elset, elset=elt984-S2, internal, instance=tess
984,
*Elset, elset=elt982-S2, internal, instance=tess
982,
*Elset, elset=elt993-S4, internal, instance=tess
993,
*Elset, elset=elt960-S2, internal, instance=tess
960,
*Elset, elset=elt936-S4, internal, instance=tess
936,
*Elset, elset=elt991-S2, internal, instance=tess
991,
*Elset, elset=elt943-S2, internal, instance=tess
943,
*Elset, elset=elt962-S1, internal, instance=tess
962,
*Elset, elset=elt970-S2, internal, instance=tess
970,
*Elset, elset=elt913-S2, internal, instance=tess
913,
*Elset, elset=elt923-S1, internal, instance=tess
923,
*Surface, type=ELEMENT, name=z0
elt61-S2, S2
elt51-S1, S1
elt33-S1, S1
elt91-S2, S2
elt21-S1, S1
elt37-S2, S2
elt67-S3, S3
elt39-S1, S1
elt4-S1, S1
elt22-S2, S2
elt30-S1, S1
elt81-S3, S3
elt63-S4, S4
elt65-S2, S2
elt36-S1, S1
elt6-S1, S1
elt58-S1, S1
elt206-S4, S4
elt107-S4, S4
elt177-S1, S1
elt201-S4, S4
elt199-S1, S1
elt123-S4, S4
elt148-S4, S4
elt126-S1, S1
elt133-S4, S4
elt187-S3, S3
elt129-S2, S2
elt108-S1, S1
elt130-S1, S1
elt207-S2, S2
elt189-S3, S3
elt255-S4, S4
elt269-S3, S3
elt259-S2, S2
elt232-S2, S2
elt302-S3, S3
elt280-S4, S4
elt261-S1, S1
elt303-S2, S2
elt290-S1, S1
elt276-S2, S2
elt319-S3, S3
elt316-S1, S1
elt258-S4, S4
elt231-S2, S2
elt285-S1, S1
elt930-S4, S4
elt1000-S3, S3
elt933-S1, S1
elt956-S1, S1
elt941-S1, S1
elt996-S3, S3
elt965-S2, S2
elt984-S2, S2
elt982-S2, S2
elt993-S4, S4
elt960-S2, S2
elt936-S4, S4
elt991-S2, S2
elt943-S2, S2
elt962-S1, S1
elt970-S2, S2
elt913-S2, S2
elt923-S1, S1
*Elset, elset=elt380-S3, internal, instance=tess
380,
*Elset, elset=elt407-S2, internal, instance=tess
407,
*Elset, elset=elt348-S1, internal, instance=tess
348,
*Elset, elset=elt386-S4, internal, instance=tess
386,
*Elset, elset=elt444-S1, internal, instance=tess
444,
*Elset, elset=elt385-S3, internal, instance=tess
385,
*Elset, elset=elt344-S4, internal, instance=tess
344,
*Elset, elset=elt437-S4, internal, instance=tess
437,
*Elset, elset=elt340-S2, internal, instance=tess
340,
*Elset, elset=elt363-S4, internal, instance=tess
363,
*Elset, elset=elt438-S1, internal, instance=tess
438,
*Elset, elset=elt374-S1, internal, instance=tess
374,
*Elset, elset=elt353-S3, internal, instance=tess
353,
*Elset, elset=elt378-S1, internal, instance=tess
378,
*Elset, elset=elt434-S1, internal, instance=tess
434,
*Elset, elset=elt397-S3, internal, instance=tess
397,
*Elset, elset=elt664-S2, internal, instance=tess
664,
*Elset, elset=elt648-S1, internal, instance=tess
648,
*Elset, elset=elt624-S4, internal, instance=tess
624,
*Elset, elset=elt508-S4, internal, instance=tess
508,
*Elset, elset=elt558-S4, internal, instance=tess
558,
*Elset, elset=elt623-S3, internal, instance=tess
623,
*Elset, elset=elt536-S4, internal, instance=tess
536,
*Elset, elset=elt625-S4, internal, instance=tess
625,
*Elset, elset=elt531-S1, internal, instance=tess
531,
*Elset, elset=elt555-S2, internal, instance=tess
555,
*Elset, elset=elt578-S1, internal, instance=tess
578,
*Elset, elset=elt491-S1, internal, instance=tess
491,
*Elset, elset=elt494-S1, internal, instance=tess
494,
*Elset, elset=elt657-S3, internal, instance=tess
657,
*Elset, elset=elt701-S4, internal, instance=tess
701,
*Elset, elset=elt700-S4, internal, instance=tess
700,
*Elset, elset=elt673-S4, internal, instance=tess
673,
*Elset, elset=elt677-S2, internal, instance=tess
677,
*Elset, elset=elt686-S4, internal, instance=tess
686,
*Elset, elset=elt721-S4, internal, instance=tess
721,
*Elset, elset=elt706-S2, internal, instance=tess
706,
*Elset, elset=elt713-S3, internal, instance=tess
713,
*Elset, elset=elt694-S3, internal, instance=tess
694,
*Elset, elset=elt731-S4, internal, instance=tess
731,
*Elset, elset=elt674-S3, internal, instance=tess
674,
*Elset, elset=elt748-S2, internal, instance=tess
748,
*Elset, elset=elt736-S1, internal, instance=tess
736,
*Elset, elset=elt683-S3, internal, instance=tess
683,
*Elset, elset=elt684-S4, internal, instance=tess
684,
*Elset, elset=elt693-S3, internal, instance=tess
693,
*Elset, elset=elt747-S2, internal, instance=tess
747,
*Elset, elset=elt689-S3, internal, instance=tess
689,
*Elset, elset=elt853-S3, internal, instance=tess
853,
*Elset, elset=elt789-S4, internal, instance=tess
789,
*Elset, elset=elt854-S2, internal, instance=tess
854,
*Elset, elset=elt884-S2, internal, instance=tess
884,
*Elset, elset=elt881-S2, internal, instance=tess
881,
*Elset, elset=elt795-S2, internal, instance=tess
795,
*Elset, elset=elt820-S1, internal, instance=tess
820,
*Elset, elset=elt776-S2, internal, instance=tess
776,
*Elset, elset=elt896-S4, internal, instance=tess
896,
*Elset, elset=elt852-S4, internal, instance=tess
852,
*Elset, elset=elt793-S1, internal, instance=tess
793,
*Elset, elset=elt861-S2, internal, instance=tess
861,
*Elset, elset=elt862-S2, internal, instance=tess
862,
*Elset, elset=elt831-S3, internal, instance=tess
831,
*Elset, elset=elt815-S2, internal, instance=tess
815,
*Elset, elset=elt1058-S4, internal, instance=tess
1058,
*Elset, elset=elt1037-S1, internal, instance=tess
1037,
*Elset, elset=elt1002-S2, internal, instance=tess
1002,
*Elset, elset=elt1015-S1, internal, instance=tess
1015,
*Elset, elset=elt1008-S4, internal, instance=tess
1008,
*Elset, elset=elt1062-S3, internal, instance=tess
1062,
*Elset, elset=elt1118-S4, internal, instance=tess
1118,
*Elset, elset=elt1097-S4, internal, instance=tess
1097,
*Elset, elset=elt1116-S4, internal, instance=tess
1116,
*Elset, elset=elt1040-S2, internal, instance=tess
1040,
*Elset, elset=elt1084-S1, internal, instance=tess
1084,
*Elset, elset=elt1059-S3, internal, instance=tess
1059,
*Elset, elset=elt1098-S1, internal, instance=tess
1098,
*Elset, elset=elt1014-S4, internal, instance=tess
1014,
*Surface, type=ELEMENT, name=z1
elt380-S3, S3
elt407-S2, S2
elt348-S1, S1
elt386-S4, S4
elt444-S1, S1
elt385-S3, S3
elt344-S4, S4
elt437-S4, S4
elt340-S2, S2
elt363-S4, S4
elt438-S1, S1
elt374-S1, S1
elt353-S3, S3
elt378-S1, S1
elt434-S1, S1
elt397-S3, S3
elt664-S2, S2
elt648-S1, S1
elt624-S4, S4
elt508-S4, S4
elt558-S4, S4
elt623-S3, S3
elt536-S4, S4
elt625-S4, S4
elt531-S1, S1
elt555-S2, S2
elt578-S1, S1
elt491-S1, S1
elt494-S1, S1
elt657-S3, S3
elt701-S4, S4
elt700-S4, S4
elt673-S4, S4
elt677-S2, S2
elt686-S4, S4
elt721-S4, S4
elt706-S2, S2
elt713-S3, S3
elt694-S3, S3
elt731-S4, S4
elt674-S3, S3
elt748-S2, S2
elt736-S1, S1
elt683-S3, S3
elt684-S4, S4
elt693-S3, S3
elt747-S2, S2
elt689-S3, S3
elt853-S3, S3
elt789-S4, S4
elt854-S2, S2
elt884-S2, S2
elt881-S2, S2
elt795-S2, S2
elt820-S1, S1
elt776-S2, S2
elt896-S4, S4
elt852-S4, S4
elt793-S1, S1
elt861-S2, S2
elt862-S2, S2
elt831-S3, S3
elt815-S2, S2
elt1058-S4, S4
elt1037-S1, S1
elt1002-S2, S2
elt1015-S1, S1
elt1008-S4, S4
elt1062-S3, S3
elt1118-S4, S4
elt1097-S4, S4
elt1116-S4, S4
elt1040-S2, S2
elt1084-S1, S1
elt1059-S3, S3
elt1098-S1, S1
elt1014-S4, S4
*End Part
